0015_q000_m01_k00_opt_uwb97xd_def2svpd/0015_q000_m01_k00_force_uwb97xd_d
Force     UwB97XD                                                     Gen                 
Number of atoms                            I                3
Info1-9                                    I   N=           9
          13           9           0           0           0         100
           5          18       -5802
Full Title                                 C   N=           9
0015_q000_m01_k00_opt_uwb97xd_def2svpd/0015_q000_m01_k00_for
ce_uwb97xd_def2tzvpd_coc stable-force-charge    
Route                                      C   N=          16
#p uwb97xd/chkbasis force guess=read geom=check scf=(maxcycl
e=900,verytightlineq,xqc) integral=grid=ultrafine symm=Cente
rOfCharge density=current pop=(cm5,hlygat,mbs,npa) output=wf
x           
Charge                                     I                0
Multiplicity                               I                1
Number of electrons                        I               10
Number of alpha electrons                  I                5
Number of beta electrons                   I                5
Number of basis functions                  I               58
Number of independent functions            I               58
Number of point charges in /Mol/           I                0
Number of translation vectors              I                0
Atomic numbers                             I   N=           3
           8           1           1
Nuclear charges                            R   N=           3
  8.00000000E+00  1.00000000E+00  1.00000000E+00
Current cartesian coordinates              R   N=           9
 -9.08526947E-17  2.19778153E-01  3.16920157E-17  1.44320880E+00 -8.79119276E-01
 -3.44684886E-16 -1.44320880E+00 -8.79105944E-01 -1.68024226E-16
Number of symbols in /Mol/                 I                0
Int Atom Types                             I   N=           3
           0           0           0
Force Field                                I                0
Atom Types                                 C   N=           3
                                    
MM charges                                 R   N=           3
  0.00000000E+00  0.00000000E+00  0.00000000E+00
Integer atomic weights                     I   N=           3
          16           1           1
Real atomic weights                        R   N=           3
  1.59949146E+01  1.00782504E+00  1.00782504E+00
Atom fragment info                         I   N=           3
           0           0           0
Atom residue num                           I   N=           3
           0           0           0
Nuclear spins                              I   N=           3
           0           1           1
Nuclear ZEff                               R   N=           3
 -5.60000000E+00 -1.00000000E+00 -1.00000000E+00
Nuclear ZNuc                               R   N=           3
  8.00000000E+00  1.00000000E+00  1.00000000E+00
Nuclear QMom                               R   N=           3
  0.00000000E+00  0.00000000E+00  0.00000000E+00
Nuclear GFac                               R   N=           3
  0.00000000E+00  2.79284600E+00  2.79284600E+00
MicOpt                                     I   N=           3
          -1          -1          -1
Number of residues                         I                0
Number of secondary structures             I                0
SymInf integers                            I   N=          26
           1           2           1           1           1           1
           1          -1           0           0           0           0
           0           0           0           0           0           0
           0           0           0           0           0           0
           0           0
RotTr to input orientation                 R   N=          12
 -2.15728381E-01  7.40826611E-01  6.36110995E-01 -7.40903028E-01 -5.48517008E-01
  3.87545863E-01  6.36021988E-01 -3.87691921E-01  6.67211365E-01  1.77018583E-01
  1.31049483E-01 -9.25931786E-02
Number of contracted shells                I               24
Number of primitive shells                 I               37
Pure/Cartesian d shells                    I                0
Pure/Cartesian f shells                    I                0
Highest angular momentum                   I                3
Largest degree of contraction              I                6
Shell types                                I   N=          24
           0           0           0           0           0           0
           1           1           1           1          -2          -2
          -2          -3           0           0           0           1
           1           0           0           0           1           1
Number of primitives per shell             I   N=          24
           6           2           1           1           1           1
           4           1           1           1           1           1
           1           1           3           1           1           1
           1           3           1           1           1           1
Shell to atom map                          I   N=          24
           1           1           1           1           1           1
           1           1           1           1           1           1
           1           1           2           2           2           2
           2           3           3           3           3           3
Primitive exponents                        R   N=          37
  2.70323826E+04  4.05238714E+03  9.22327227E+02  2.61240710E+02  8.53546414E+01
  3.10350352E+01  1.22608607E+01  4.99870760E+00  1.17031082E+00  4.64747410E-01
  1.85045364E-01  7.02880263E-02  6.32749548E+01  1.46270494E+01  4.45012235E+00
  1.52757996E+00  5.29351179E-01  1.74784213E-01  5.11127457E-02  2.31400000E+00
  6.45000000E-01  1.46964774E-01  1.42800000E+00  3.40613410E+01  5.12357460E+00
  1.16466260E+00  3.27230410E-01  1.03072410E-01  8.00000000E-01  9.57741296E-02
  3.40613410E+01  5.12357460E+00  1.16466260E+00  3.27230410E-01  1.03072410E-01
  8.00000000E-01  9.57741296E-02
Contraction coefficients                   R   N=          37
  5.72273352E-04  4.43532335E-03  2.30201077E-02  9.28224907E-02  2.93785000E-01
  6.74016045E-01  6.38399370E-01  3.95345871E-01  1.00000000E+00  1.00000000E+00
  1.00000000E+00  1.00000000E+00  1.20183322E-02  8.30054218E-02  3.19917439E-01
  7.07155429E-01  1.00000000E+00  1.00000000E+00  1.00000000E+00  1.00000000E+00
  1.00000000E+00  1.00000000E+00  1.00000000E+00  2.54393072E-02  1.90085949E-01
  8.52441130E-01  1.00000000E+00  1.00000000E+00  1.00000000E+00  1.00000000E+00
  2.54393072E-02  1.90085949E-01  8.52441130E-01  1.00000000E+00  1.00000000E+00
  1.00000000E+00  1.00000000E+00
Coordinates of each shell                  R   N=          72
 -5.81293666E-17  2.19778153E-01  7.47202515E-18 -5.81293666E-17  2.19778153E-01
  7.47202515E-18 -5.81293666E-17  2.19778153E-01  7.47202515E-18 -5.81293666E-17
  2.19778153E-01  7.47202515E-18 -5.81293666E-17  2.19778153E-01  7.47202515E-18
 -5.81293666E-17  2.19778153E-01  7.47202515E-18 -5.81293666E-17  2.19778153E-01
  7.47202515E-18 -5.81293666E-17  2.19778153E-01  7.47202515E-18 -5.81293666E-17
  2.19778153E-01  7.47202515E-18 -5.81293666E-17  2.19778153E-01  7.47202515E-18
 -5.81293666E-17  2.19778153E-01  7.47202515E-18 -5.81293666E-17  2.19778153E-01
  7.47202515E-18 -5.81293666E-17  2.19778153E-01  7.47202515E-18 -5.81293666E-17
  2.19778153E-01  7.47202515E-18  1.44320880E+00 -8.79119276E-01 -1.20906930E-16
  1.44320880E+00 -8.79119276E-01 -1.20906930E-16  1.44320880E+00 -8.79119276E-01
 -1.20906930E-16  1.44320880E+00 -8.79119276E-01 -1.20906930E-16  1.44320880E+00
 -8.79119276E-01 -1.20906930E-16 -1.44320880E+00 -8.79105944E-01  6.11307287E-17
 -1.44320880E+00 -8.79105944E-01  6.11307287E-17 -1.44320880E+00 -8.79105944E-01
  6.11307287E-17 -1.44320880E+00 -8.79105944E-01  6.11307287E-17 -1.44320880E+00
 -8.79105944E-01  6.11307287E-17
Num ILSW                                   I              100
ILSW                                       I   N=         100
           1           0           0           0           2           0
           0           0           0           0        4639          -1
           5           0           0           0           2           0
           0           0           0           0           1           0
           1           0           0           0           0           0
           0           0      100000           0          -1           0
           0           0           0           0           0           0
           0           0           0           1           0           0
           0 -2000000000           1           0           0           0
           0           0         121          52           0           0
           0           0          58           0           0           0
           0           0           0           3           0           1
           0           0           0           0           0           0
           0           0           0           0           0           0
           0           0           0           0           0           0
           0           0           0           0           0           0
           0           0           0           0
Num RLSW                                   I               52
RLSW                                       R   N=          52
  1.00000000E+00  1.00000000E+00  1.00000000E+00  1.00000000E+00  1.00000000E+00
  0.00000000E+00  2.00000000E-01  2.22036000E-01  0.00000000E+00  7.77964000E-01
  0.00000000E+00  2.00000000E-01  0.00000000E+00  0.00000000E+00  1.00000000E+00
  0.00000000E+00  0.00000000E+00  1.00000000E+00  0.00000000E+00  0.00000000E+00
  0.00000000E+00  0.00000000E+00  1.00000000E+00  0.00000000E+00  0.00000000E+00
  0.00000000E+00  0.00000000E+00  1.00000000E+00  0.00000000E+00  0.00000000E+00
  0.00000000E+00  0.00000000E+00  1.00000000E+00  0.00000000E+00  0.00000000E+00
  0.00000000E+00  0.00000000E+00  0.00000000E+00  1.00000000E+00  1.00000000E+00
  0.00000000E+00  1.00000000E+00  0.00000000E+00  0.00000000E+00  0.00000000E+00
  0.00000000E+00  0.00000000E+00  0.00000000E+00  0.00000000E+00  0.00000000E+00
  0.00000000E+00  0.00000000E+00
MxBond                                     I                2
NBond                                      I   N=           3
           2           1           1
IBond                                      I   N=           6
           2           3           1           0           1           0
RBond                                      R   N=           6
  1.00000000E+00  1.00000000E+00  1.00000000E+00  0.00000000E+00  1.00000000E+00
  0.00000000E+00
Virial Ratio                               R      2.004096170944088E+00
SCF Energy                                 R     -7.644088066735493E+01
Total Energy                               R     -7.644088066735493E+01
S**2                                       R     -1.421085471520200E-14
S**2 after annihilation                    R      5.506706202140742E-14
RMS Force                                  R      9.260249759847067E-04
RMS Density                                R      1.719538454978643E-09
Job Status                                 I                1
Nuclear derivative order                   I                1
External E-field                           R   N=          35
  0.00000000E+00  0.00000000E+00  0.00000000E+00  0.00000000E+00  0.00000000E+00
  0.00000000E+00  0.00000000E+00  0.00000000E+00  0.00000000E+00  0.00000000E+00
  0.00000000E+00  0.00000000E+00  0.00000000E+00  0.00000000E+00  0.00000000E+00
  0.00000000E+00  0.00000000E+00  0.00000000E+00  0.00000000E+00  0.00000000E+00
  0.00000000E+00  0.00000000E+00  0.00000000E+00  0.00000000E+00  0.00000000E+00
  0.00000000E+00  0.00000000E+00  0.00000000E+00  0.00000000E+00  0.00000000E+00
  0.00000000E+00  0.00000000E+00  0.00000000E+00  0.00000000E+00  0.00000000E+00
IOpCl                                      I                1
IROHF                                      I                0
Alpha Orbital Energies                     R   N=          58
 -1.92552286E+01 -1.11675017E+00 -6.25288226E-01 -4.81289121E-01 -4.06135889E-01
  6.35464101E-02  1.03895036E-01  1.32402064E-01  1.34276868E-01  2.06597249E-01
  2.33402736E-01  2.61963619E-01  2.73322250E-01  2.92805906E-01  3.30038563E-01
  3.44792581E-01  3.84657627E-01  4.94214748E-01  5.01243862E-01  5.30054940E-01
  5.75344907E-01  5.90689142E-01  7.25607417E-01  7.69849519E-01  7.81468345E-01
  7.81573764E-01  9.59535630E-01  1.04414299E+00  1.58455582E+00  1.66481560E+00
  1.67494899E+00  1.79830869E+00  1.82273304E+00  1.91206848E+00  2.16929858E+00
  2.23590187E+00  2.35503213E+00  2.58594691E+00  2.61696682E+00  2.82366194E+00
  2.87674000E+00  2.90110901E+00  3.17950627E+00  3.85441626E+00  4.08071987E+00
  5.18392913E+00  5.32016055E+00  5.49616234E+00  5.54381269E+00  5.57715228E+00
  6.15767853E+00  6.38703415E+00  6.53251438E+00  6.59545288E+00  6.60459058E+00
  7.04485104E+00  7.13350238E+00  4.37565038E+01
Beta Orbital Energies                      R   N=          58
 -1.92552286E+01 -1.11675017E+00 -6.25288226E-01 -4.81289121E-01 -4.06135889E-01
  6.35464101E-02  1.03895036E-01  1.32402064E-01  1.34276868E-01  2.06597249E-01
  2.33402736E-01  2.61963619E-01  2.73322250E-01  2.92805906E-01  3.30038563E-01
  3.44792581E-01  3.84657627E-01  4.94214748E-01  5.01243862E-01  5.30054940E-01
  5.75344907E-01  5.90689142E-01  7.25607417E-01  7.69849519E-01  7.81468345E-01
  7.81573764E-01  9.59535630E-01  1.04414299E+00  1.58455582E+00  1.66481560E+00
  1.67494899E+00  1.79830869E+00  1.82273304E+00  1.91206848E+00  2.16929858E+00
  2.23590187E+00  2.35503213E+00  2.58594691E+00  2.61696682E+00  2.82366194E+00
  2.87674000E+00  2.90110901E+00  3.17950627E+00  3.85441626E+00  4.08071987E+00
  5.18392913E+00  5.32016055E+00  5.49616234E+00  5.54381269E+00  5.57715228E+00
  6.15767853E+00  6.38703415E+00  6.53251438E+00  6.59545288E+00  6.60459058E+00
  7.04485104E+00  7.13350238E+00  4.37565038E+01
Alpha MO coefficients                      R   N=        3364
  4.35357154E-01  6.39612769E-01  3.45728787E-02 -2.57628697E-02  2.06724180E-02
  7.17967247E-03 -7.43830463E-09 -1.79580101E-03  0.00000000E+00  4.57780049E-09
  2.90160692E-03  0.00000000E+00 -3.12142632E-08 -3.24848414E-03  0.00000000E+00
 -4.56070059E-09 -3.93401744E-04  0.00000000E+00 -1.77196232E-04  0.00000000E+00
  0.00000000E+00  9.83978677E-05 -4.58867267E-10  7.20788373E-04  0.00000000E+00
  0.00000000E+00 -3.88843728E-04  9.38704507E-09 -3.73731875E-04  0.00000000E+00
  0.00000000E+00  6.49345895E-04 -4.66411806E-09  0.00000000E+00  7.15003239E-10
 -1.47811661E-04  0.00000000E+00  0.00000000E+00  2.76065579E-09  2.70352149E-04
  8.26956653E-04  5.99091146E-04 -8.87345553E-03 -7.77539063E-04  5.34672928E-04
  0.00000000E+00  1.81262748E-03 -2.03067740E-03  0.00000000E+00  8.26961121E-04
  5.99075186E-04 -8.87357866E-03  7.77529350E-04  5.34656991E-04  0.00000000E+00
 -1.81266217E-03 -2.03068309E-03  0.00000000E+00 -9.74919516E-02 -2.29714482E-01
  3.32062776E-01  4.44532757E-01  1.48408967E-01 -5.19062694E-04 -1.02216856E-06
 -8.21040625E-02  0.00000000E+00 -5.07239877E-07 -7.03723109E-02  0.00000000E+00
 -5.40500416E-08 -8.64975848E-03  0.00000000E+00 -7.19618401E-10  2.90752334E-04
  0.00000000E+00 -4.15679268E-03  0.00000000E+00  0.00000000E+00  1.02463457E-03
  6.49037572E-08 -1.18981734E-02  0.00000000E+00  0.00000000E+00  1.91934589E-03
 -4.66473973E-08  2.03767458E-03  0.00000000E+00  0.00000000E+00 -2.46166699E-03
  1.44514820E-08  0.00000000E+00  2.43678123E-08  2.67709844E-03  0.00000000E+00
  0.00000000E+00 -2.76948927E-08 -3.99017060E-03  9.28147252E-02  7.24443444E-02
  8.63508125E-03 -1.45065528E-02  8.46397153E-03  0.00000000E+00 -7.81069539E-04
  5.41689807E-04  0.00000000E+00  9.28158922E-02  7.24450476E-02  8.63510752E-03
  1.45067877E-02  8.46405079E-03  0.00000000E+00  7.81066886E-04  5.41691625E-04
  0.00000000E+00 -2.07913914E-07 -4.90039864E-07  6.08448044E-07  1.59892515E-06
  1.12284675E-06  1.77885974E-07  3.84354965E-01 -2.99358549E-07  0.00000000E+00
  3.04294793E-01 -5.13344278E-07  0.00000000E+00  1.35152446E-01 -2.11386881E-07
  0.00000000E+00  7.25933216E-03 -9.92044462E-09  0.00000000E+00  3.78270030E-08
  0.00000000E+00  0.00000000E+00 -9.14186981E-08 -1.17217408E-02 -2.74400666E-08
  0.00000000E+00  0.00000000E+00 -1.34673130E-07 -2.68113977E-02  8.76197562E-09
  0.00000000E+00  0.00000000E+00  8.11642516E-10 -4.93731958E-03  0.00000000E+00
 -5.30502466E-03  8.61509250E-09  0.00000000E+00  0.00000000E+00  2.39764161E-04
  1.05111171E-08  1.47007221E-01  1.81530661E-01  2.22808413E-02 -7.71980530E-03
  1.68494512E-02  0.00000000E+00  7.28533475E-03 -2.50548905E-03  0.00000000E+00
 -1.47007593E-01 -1.81530514E-01 -2.22806685E-02 -7.71992978E-03 -1.68494557E-02
  0.00000000E+00  7.28537497E-03  2.50540743E-03  0.00000000E+00 -3.57925563E-02
 -8.56878130E-02  1.31269225E-01  2.02676997E-01  2.01029831E-01  2.99703733E-02
  7.87252903E-07  4.14844492E-01  0.00000000E+00  4.45763848E-07  3.36850929E-01
  0.00000000E+00  3.68553980E-07  2.16657177E-01  0.00000000E+00  1.86908122E-08
  2.87308210E-02  0.00000000E+00  4.85413043E-03  0.00000000E+00  0.00000000E+00
  3.42145476E-03 -4.09168341E-08  1.08769120E-02  0.00000000E+00  0.00000000E+00
  1.92081629E-02 -7.71973983E-08  8.78955967E-03  0.00000000E+00  0.00000000E+00
  2.77489984E-02 -1.98236679E-07  0.00000000E+00 -3.99554924E-09 -3.68070342E-03
  0.00000000E+00  0.00000000E+00 -2.51161672E-09  1.49861548E-03 -8.57056298E-02
 -1.23185532E-01 -4.59297034E-02  1.49980656E-02  8.89904271E-03  0.00000000E+00
 -1.20261284E-03 -5.06241186E-03  0.00000000E+00 -8.57052916E-02 -1.23184608E-01
 -4.59290383E-02 -1.49980370E-02  8.89921535E-03  0.00000000E+00  1.20271725E-03
 -5.06256402E-03  0.00000000E+00  0.00000000E+00  0.00000000E+00  0.00000000E+00
  0.00000000E+00  0.00000000E+00  0.00000000E+00  0.00000000E+00  0.00000000E+00
  4.70475471E-01  0.00000000E+00  0.00000000E+00  3.98418735E-01  0.00000000E+00
  0.00000000E+00  3.01470058E-01  0.00000000E+00  0.00000000E+00  4.03857567E-02
  0.00000000E+00 -4.47910093E-08 -5.26269010E-03  0.00000000E+00  0.00000000E+00
  0.00000000E+00 -1.02894472E-07 -2.13690847E-02  0.00000000E+00  0.00000000E+00
  0.00000000E+00 -1.12222163E-07 -2.66090698E-02  0.00000000E+00  0.00000000E+00
 -5.38895876E-03  0.00000000E+00  0.00000000E+00  1.54181671E-03  4.86848328E-09
  0.00000000E+00  0.00000000E+00  0.00000000E+00  0.00000000E+00  0.00000000E+00
  0.00000000E+00  0.00000000E+00  2.50927913E-02  0.00000000E+00  0.00000000E+00
  3.81124846E-03  0.00000000E+00  0.00000000E+00  0.00000000E+00  0.00000000E+00
  0.00000000E+00  2.50929000E-02  0.00000000E+00  0.00000000E+00  3.81111567E-03
  2.41201396E-02  5.59948660E-02 -5.49439155E-02 -3.78932549E-01  7.43471364E-01
  3.27544136E+00 -1.01149216E-06  1.09129380E-01  0.00000000E+00 -5.95703508E-07
  1.54463961E-01  0.00000000E+00 -1.85443487E-06 -2.63393201E-01  0.00000000E+00
 -2.02260760E-07 -5.79587523E-01  0.00000000E+00  2.09529242E-05  0.00000000E+00
  0.00000000E+00  1.87768948E-03 -3.66609335E-08  2.26593263E-03  0.00000000E+00
  0.00000000E+00  2.03847083E-03 -1.59247916E-07 -8.05453060E-02  0.00000000E+00
  0.00000000E+00  6.01284469E-02 -7.90062725E-07  0.00000000E+00 -2.31712081E-08
 -7.12951369E-04  0.00000000E+00  0.00000000E+00 -2.52047691E-08  5.51159479E-04
  1.52589461E-02  5.52735730E-02 -1.55514405E+00  1.77006821E-02 -8.41131125E-03
  0.00000000E+00  4.26468737E-01 -4.01404569E-01  0.00000000E+00  1.52583988E-02
  5.52720613E-02 -1.55515092E+00 -1.77003648E-02 -8.41074313E-03  0.00000000E+00
 -4.26468839E-01 -4.01399744E-01  0.00000000E+00 -1.96845191E-08 -2.72402496E-08
 -3.00935982E-07  1.96463978E-06 -9.08062644E-06 -2.03066471E-05 -1.11793329E-01
  4.36304452E-07  0.00000000E+00 -1.64332281E-01  4.52802854E-07  0.00000000E+00
  5.79271148E-01  2.64112150E-07  0.00000000E+00  1.59133958E+00 -1.23353254E-06
  0.00000000E+00 -1.57338854E-08  0.00000000E+00  0.00000000E+00  2.25939626E-08
  8.69237759E-04 -5.30995622E-08  0.00000000E+00  0.00000000E+00  3.75184103E-08
 -1.33292173E-03  3.88474772E-07  0.00000000E+00  0.00000000E+00 -1.54137079E-06
 -2.27571409E-01  0.00000000E+00  8.41487643E-05  1.58364984E-08  0.00000000E+00
  0.00000000E+00 -1.02664029E-03 -2.34570344E-08 -1.92056640E-03 -6.05705198E-02
 -2.19062399E+00  1.19357987E-02 -1.19971113E-02  0.00000000E+00  4.63077420E-01
 -4.84396890E-01  0.00000000E+00  1.92093030E-03  6.05721996E-02  2.19064996E+00
  1.19356194E-02  1.19969752E-02  0.00000000E+00  4.63080863E-01  4.84396000E-01
  0.00000000E+00  0.00000000E+00  0.00000000E+00  0.00000000E+00  0.00000000E+00
  0.00000000E+00  0.00000000E+00  0.00000000E+00  0.00000000E+00 -1.17844833E-01
  0.00000000E+00  0.00000000E+00 -9.04169309E-02  0.00000000E+00  0.00000000E+00
 -6.02975173E-02  0.00000000E+00  0.00000000E+00  1.66004703E+00  0.00000000E+00
 -8.26128810E-09 -1.94322241E-03  0.00000000E+00  0.00000000E+00  0.00000000E+00
  1.74531842E-07  2.31294752E-02  0.00000000E+00  0.00000000E+00  0.00000000E+00
 -1.70845127E-06 -1.96711189E-01  0.00000000E+00  0.00000000E+00  1.57160051E-03
  0.00000000E+00  0.00000000E+00 -5.29645488E-04 -1.09156132E-09  0.00000000E+00
  0.00000000E+00  0.00000000E+00  0.00000000E+00  0.00000000E+00  0.00000000E+00
  0.00000000E+00  1.55364666E-03  0.00000000E+00  0.00000000E+00 -4.43238169E-01
  0.00000000E+00  0.00000000E+00  0.00000000E+00  0.00000000E+00  0.00000000E+00
  1.55354056E-03  0.00000000E+00  0.00000000E+00 -4.43244350E-01  1.55205858E-02
  3.83273233E-02 -7.47671299E-02 -8.70404247E-02  1.51270232E-01 -2.23358067E-01
 -4.63624364E-07 -5.85464995E-02  0.00000000E+00 -6.17975206E-07 -5.85724932E-02
  0.00000000E+00 -2.12563331E-06 -8.61185033E-02  0.00000000E+00  2.58091842E-06
  1.74236480E+00  0.00000000E+00  2.01168933E-03  0.00000000E+00  0.00000000E+00
  1.64275002E-03 -1.50687871E-08 -2.90289298E-02  0.00000000E+00  0.00000000E+00
 -7.56725218E-03  2.03526537E-07  1.04034990E-01  0.00000000E+00  0.00000000E+00
  1.65522969E-01 -1.49287225E-06  0.00000000E+00  1.18341049E-08  1.74730417E-03
  0.00000000E+00  0.00000000E+00 -1.98270795E-08 -2.60166953E-03  2.47566931E-02
 -6.75756074E-02  5.00995869E-01  1.49215906E-02 -8.94594620E-03  0.00000000E+00
  1.22849892E-01 -4.50705671E-01  0.00000000E+00  2.47562837E-02 -6.75767620E-02
  5.00984122E-01 -1.49218425E-02 -8.94601700E-03  0.00000000E+00 -1.22854961E-01
 -4.50711242E-01  0.00000000E+00 -1.67224501E-07 -4.38913271E-07  1.31999537E-06
 -2.03298520E-06  1.80597936E-05  7.14078552E-05  1.42936559E-01 -2.38295964E-06
  0.00000000E+00  1.16717040E-01 -1.26357023E-06  0.00000000E+00  1.46628256E-01
 -7.28383969E-06  0.00000000E+00  1.42714210E+00 -1.06842829E-05  0.00000000E+00
  3.60500453E-08  0.00000000E+00  0.00000000E+00 -2.61151604E-08  1.83847823E-03
  3.04615286E-07  0.00000000E+00  0.00000000E+00 -1.51039934E-07  5.00616384E-02
 -6.17985395E-07  0.00000000E+00  0.00000000E+00  1.02056948E-06 -2.60141789E-01
  0.00000000E+00  1.02805125E-03 -2.45161418E-08  0.00000000E+00  0.00000000E+00
  1.89010479E-03  2.38491707E-08 -4.85678078E-02 -1.57372686E-01 -2.14262788E-01
 -2.09781267E-02  3.34426502E-02  0.00000000E+00 -9.70094321E-01  7.12622362E-01
  0.00000000E+00  4.85654142E-02  1.57369181E-01  2.14171337E-01 -2.09774358E-02
 -3.34423826E-02  0.00000000E+00 -9.70103091E-01 -7.12634166E-01  0.00000000E+00
 -1.07285375E-02 -2.75048499E-02  7.42965366E-02 -7.10434373E-02  6.08842881E-01
  3.77981496E+00 -8.04651108E-07 -5.96142213E-02  0.00000000E+00 -2.33724333E-07
 -2.30011022E-02  0.00000000E+00  1.81423288E-06 -1.05340664E-01  0.00000000E+00
 -1.07847921E-05  1.38942069E-01  0.00000000E+00  1.06204927E-03  0.00000000E+00
  0.00000000E+00 -8.18366270E-04  1.38314472E-09  2.87387596E-02  0.00000000E+00
  0.00000000E+00 -4.83854222E-02 -4.41324159E-07 -1.13276456E-01  0.00000000E+00
  0.00000000E+00  4.28766258E-01 -5.41993194E-07  0.00000000E+00 -3.11300423E-08
 -2.07957851E-03  0.00000000E+00  0.00000000E+00 -7.88865192E-09  2.80955718E-03
 -4.85307209E-02 -4.75615255E-02 -2.45007750E+00 -4.57452058E-02 -3.98578803E-03
  0.00000000E+00 -6.36529664E-01 -8.72664216E-01  0.00000000E+00 -4.85307101E-02
 -4.75613530E-02 -2.45005423E+00  4.57459071E-02 -3.98511552E-03  0.00000000E+00
  6.36557694E-01 -8.72644643E-01  0.00000000E+00  0.00000000E+00  0.00000000E+00
  0.00000000E+00  0.00000000E+00  0.00000000E+00  0.00000000E+00  0.00000000E+00
  0.00000000E+00 -4.77749139E-07  0.00000000E+00  0.00000000E+00 -2.30899624E-07
  0.00000000E+00  0.00000000E+00 -1.47750032E-06  0.00000000E+00  0.00000000E+00
 -8.14642542E-06  0.00000000E+00 -4.99787658E-04 -3.84903498E-09  0.00000000E+00
  0.00000000E+00  0.00000000E+00  4.28756461E-02 -2.89179361E-07  0.00000000E+00
  0.00000000E+00  0.00000000E+00 -3.92962849E-01  1.97055851E-06  0.00000000E+00
  0.00000000E+00 -8.43675901E-10  0.00000000E+00  0.00000000E+00 -6.32876212E-09
  1.91331804E-04  0.00000000E+00  0.00000000E+00  0.00000000E+00  0.00000000E+00
  0.00000000E+00  0.00000000E+00  0.00000000E+00  1.98404225E-02  0.00000000E+00
  0.00000000E+00  1.59658306E+00  0.00000000E+00  0.00000000E+00  0.00000000E+00
  0.00000000E+00  0.00000000E+00 -1.98401886E-02  0.00000000E+00  0.00000000E+00
 -1.59656977E+00 -1.41829151E-02 -3.52755146E-02  7.74243563E-02 -2.24240969E-02
  9.77859526E-01  4.94412339E+00 -3.04636713E-07 -2.16967234E-01  0.00000000E+00
  7.20304323E-07 -5.99283394E-02  0.00000000E+00  2.34436548E-08 -1.15146864E+00
  0.00000000E+00 -1.48805392E-05 -1.60174556E+00  0.00000000E+00  2.77775791E-03
  0.00000000E+00  0.00000000E+00 -1.40985687E-03  6.10555030E-08  1.52457277E-02
  0.00000000E+00  0.00000000E+00 -5.24900130E-03 -5.39900614E-07 -3.99573309E-02
  0.00000000E+00  0.00000000E+00 -1.25977125E-01  3.29924464E-06  0.00000000E+00
 -3.50720125E-08  5.83662815E-04  0.00000000E+00  0.00000000E+00  2.83841227E-08
  1.08105355E-03 -4.68191374E-02 -1.11156286E-01 -3.21441419E+00 -1.58243288E-02
  3.45658382E-02  0.00000000E+00  6.14458098E-01  4.64052376E-01  0.00000000E+00
 -4.68181515E-02 -1.11154707E-01 -3.21439462E+00  1.58253691E-02  3.45663892E-02
  0.00000000E+00 -6.14423322E-01  4.64076390E-01  0.00000000E+00  0.00000000E+00
  0.00000000E+00  0.00000000E+00  0.00000000E+00  0.00000000E+00  0.00000000E+00
  0.00000000E+00  0.00000000E+00  1.40567999E-01  0.00000000E+00  0.00000000E+00
  8.60902525E-03  0.00000000E+00  0.00000000E+00  8.90865002E-01  0.00000000E+00
  0.00000000E+00  1.57616755E+00  0.00000000E+00 -1.09744531E-08  1.52835683E-03
  0.00000000E+00  0.00000000E+00  0.00000000E+00  2.84967894E-07  1.76031243E-02
  0.00000000E+00  0.00000000E+00  0.00000000E+00 -3.54469620E-06 -1.40470503E-01
  0.00000000E+00  0.00000000E+00 -1.72116467E-03  0.00000000E+00  0.00000000E+00
  1.56592061E-03  5.40229662E-09  0.00000000E+00  0.00000000E+00  0.00000000E+00
  0.00000000E+00  0.00000000E+00  0.00000000E+00  0.00000000E+00 -1.97933268E-02
  0.00000000E+00  0.00000000E+00 -1.48407793E+00  0.00000000E+00  0.00000000E+00
  0.00000000E+00  0.00000000E+00  0.00000000E+00 -1.97934601E-02  0.00000000E+00
  0.00000000E+00 -1.48410353E+00 -3.38809954E-02 -9.02602253E-02  2.58762942E-01
 -4.03004102E-01  4.03154249E+00  2.28850305E+00  4.61112162E-06 -5.42776815E-02
  0.00000000E+00  1.76117466E-06 -1.09676849E-01  0.00000000E+00  3.08500742E-05
 -4.28555999E-01  0.00000000E+00  1.52509577E-05  6.97253463E-01  0.00000000E+00
  5.47814822E-04  0.00000000E+00  0.00000000E+00 -2.20872796E-03  1.63870754E-07
 -3.53535064E-02  0.00000000E+00  0.00000000E+00  2.68325415E-03 -6.16701587E-07
 -8.06003083E-02  0.00000000E+00  0.00000000E+00  7.75636500E-02 -1.86334176E-06
  0.00000000E+00 -7.43374955E-08  3.99369822E-03  0.00000000E+00  0.00000000E+00
 -3.18150454E-08 -6.13373562E-03 -2.80728456E-02 -3.20702923E-01 -2.34420041E+00
  7.97227571E-03 -9.95245998E-03  0.00000000E+00  1.23797671E+00 -1.40333093E+00
  0.00000000E+00 -2.80708149E-02 -3.20692500E-01 -2.34404512E+00 -7.97252774E-03
 -9.95237580E-03  0.00000000E+00 -1.23794036E+00 -1.40327441E+00  0.00000000E+00
  5.82164115E-07  1.56815972E-06 -4.75495172E-06  7.83288503E-06 -7.50605703E-05
 -6.99236918E-05  2.35309070E-01  1.46058940E-07  0.00000000E+00  1.04115842E-01
  1.19336978E-06  0.00000000E+00  1.67751833E+00  1.78016761E-06  0.00000000E+00
  1.59286152E+00 -1.17413473E-05  0.00000000E+00  2.85125661E-08  0.00000000E+00
  0.00000000E+00  2.07888486E-08  3.68186080E-03  3.65707462E-07  0.00000000E+00
  0.00000000E+00 -2.01360536E-07 -3.99642543E-02  2.32433742E-06  0.00000000E+00
  0.00000000E+00 -3.61424237E-06 -8.08576535E-02  0.00000000E+00 -4.19609429E-03
 -3.64106136E-08  0.00000000E+00  0.00000000E+00 -7.88343738E-05  8.77545632E-08
 -2.23076896E-02 -2.65344669E-01 -3.67295074E+00 -1.29970217E-02 -8.65263894E-05
  0.00000000E+00  7.71593733E-02 -1.77092959E+00  0.00000000E+00  2.23080351E-02
  2.65353029E-01  3.67307621E+00 -1.29973441E-02  8.64634421E-05  0.00000000E+00
  7.72014828E-02  1.77097743E+00  0.00000000E+00  2.64008423E-07  7.25653839E-07
 -2.44652409E-06  5.24460121E-06 -4.69277553E-05 -4.73230326E-05  1.59705493E-01
  3.46436794E-07  0.00000000E+00  5.48025498E-02  1.77714373E-07  0.00000000E+00
  1.50344874E+00  3.89057997E-06  0.00000000E+00 -1.39648126E+00  8.89100923E-06
  0.00000000E+00  2.20376175E-08  0.00000000E+00  0.00000000E+00  4.72374442E-08
  7.56106185E-03  1.82520051E-07  0.00000000E+00  0.00000000E+00 -8.23877310E-08
  6.78402273E-03  4.07049383E-07  0.00000000E+00  0.00000000E+00  5.22680999E-07
 -1.71316494E-01  0.00000000E+00 -2.12656870E-03 -1.98305245E-08  0.00000000E+00
  0.00000000E+00  3.66775613E-03 -3.40427730E-10 -6.03862506E-02 -2.34240567E-01
 -7.60565877E+00 -8.38606405E-03  1.28269928E-02  0.00000000E+00  4.36149106E+00
 -3.33400496E-02  0.00000000E+00  6.03859468E-02  2.34242416E-01  7.60574521E+00
 -8.38648633E-03 -1.28274256E-02  0.00000000E+00  4.36151623E+00  3.33207559E-02
  0.00000000E+00 -2.65286003E-08 -3.20046860E-08 -5.37159731E-07  3.46142462E-06
 -3.70075880E-06 -5.10482726E-05  6.88432711E-02  1.63475025E-07  0.00000000E+00
  1.42953110E-01 -1.21388854E-06  0.00000000E+00 -1.20080242E+00  5.06474152E-06
  0.00000000E+00 -9.42946579E-01  1.45732494E-05  0.00000000E+00  1.86449946E-07
  0.00000000E+00  0.00000000E+00  8.32774220E-08  1.93853967E-02 -3.25061931E-07
  0.00000000E+00  0.00000000E+00  5.12311137E-07  5.27679628E-02  9.03230230E-06
  0.00000000E+00  0.00000000E+00  8.17816074E-06  1.67971392E+00  0.00000000E+00
  5.13699909E-03 -4.31346486E-08  0.00000000E+00  0.00000000E+00  3.41904496E-03
 -3.64882577E-08 -1.20835129E-01  9.33706277E-02  4.82054656E+00 -4.60923284E-03
  3.49667259E-02  0.00000000E+00 -1.08562644E+00 -7.12965692E-01  0.00000000E+00
  1.20833674E-01 -9.33835179E-02 -4.82047364E+00 -4.60993873E-03 -3.49672364E-02
  0.00000000E+00 -1.08561820E+00  7.12982109E-01  0.00000000E+00  1.37727034E-02
  3.19177835E-02 -2.68659306E-02 -2.67367014E-01  1.61036055E-01  3.52932805E+00
  9.82993204E-07 -3.88679681E-02  0.00000000E+00  8.46081393E-07 -2.61403077E-02
  0.00000000E+00 -7.63273587E-06 -3.75965306E-01  0.00000000E+00 -1.35484160E-05
 -1.35959804E+00  0.00000000E+00 -2.09139902E-02  0.00000000E+00  0.00000000E+00
  1.27651945E-03  1.73873061E-07 -4.99896539E-04  0.00000000E+00  0.00000000E+00
  5.81846712E-03  6.49149681E-07 -1.26380058E+00  0.00000000E+00  0.00000000E+00
  1.39145727E-01  1.46936034E-05  0.00000000E+00  5.64267355E-08  3.65886406E-03
  0.00000000E+00  0.00000000E+00  2.72861617E-08 -1.48654509E-03  7.66109375E-02
  5.35511284E-02 -2.40202248E+00  1.09578362E-02  4.84230406E-03  0.00000000E+00
 -4.04729091E-01  3.89017965E-01  0.00000000E+00  7.66132668E-02  5.35449542E-02
 -2.40204385E+00 -1.09581853E-02  4.84139721E-03  0.00000000E+00  4.04745002E-01
  3.89037556E-01  0.00000000E+00  0.00000000E+00  0.00000000E+00  0.00000000E+00
  0.00000000E+00  0.00000000E+00  0.00000000E+00  0.00000000E+00  0.00000000E+00
  1.19162971E-01  0.00000000E+00  0.00000000E+00  1.46319889E-01  0.00000000E+00
  0.00000000E+00  2.40787787E-01  0.00000000E+00  0.00000000E+00  1.31284737E+00
  0.00000000E+00 -9.85764146E-08 -2.15826534E-02  0.00000000E+00  0.00000000E+00
  0.00000000E+00  4.23878964E-08  9.83876597E-03  0.00000000E+00  0.00000000E+00
  0.00000000E+00 -5.75553499E-06 -1.29533324E+00  0.00000000E+00  0.00000000E+00
 -3.02439973E-03  0.00000000E+00  0.00000000E+00 -1.94515963E-03  2.94666097E-08
  0.00000000E+00  0.00000000E+00  0.00000000E+00  0.00000000E+00  0.00000000E+00
  0.00000000E+00  0.00000000E+00  4.99670908E-03  0.00000000E+00  0.00000000E+00
 -1.05346706E+00  0.00000000E+00  0.00000000E+00  0.00000000E+00  0.00000000E+00
  0.00000000E+00  4.99683202E-03  0.00000000E+00  0.00000000E+00 -1.05347383E+00
 -2.26505397E-03 -7.10380948E-03  4.34562773E-02 -1.09365091E-01  5.14433032E-01
  2.82051635E+00  5.53121691E-07  5.43232665E-02  0.00000000E+00  9.56779706E-07
  9.96616941E-02  0.00000000E+00  4.65847286E-06  3.60267630E-01  0.00000000E+00
  1.02216945E-07  6.53276675E-01  0.00000000E+00 -3.67171758E-03  0.00000000E+00
  0.00000000E+00  2.55585423E-02 -1.30647578E-07  1.03949107E-02  0.00000000E+00
  0.00000000E+00  4.51667922E-03 -1.17050514E-07  1.20096913E-02  0.00000000E+00
  0.00000000E+00  1.75266086E+00 -8.93582739E-06  0.00000000E+00 -1.98214802E-08
 -2.51104751E-03  0.00000000E+00  0.00000000E+00 -3.33343046E-08 -1.19924172E-03
  5.56789387E-02  4.14422559E-01 -2.11022166E+00  2.97835125E-03  3.20227980E-02
  0.00000000E+00 -6.04412861E-01 -1.25432747E+00  0.00000000E+00  5.56792479E-02
  4.14420843E-01 -2.11017175E+00 -2.97795796E-03  3.20227668E-02  0.00000000E+00
  6.04432843E-01 -1.25432700E+00  0.00000000E+00  0.00000000E+00  0.00000000E+00
  0.00000000E+00  0.00000000E+00  0.00000000E+00  0.00000000E+00  0.00000000E+00
  0.00000000E+00 -6.21905977E-07  0.00000000E+00  0.00000000E+00 -1.28873143E-06
  0.00000000E+00  0.00000000E+00  1.79171479E-06  0.00000000E+00  0.00000000E+00
  6.27276542E-08  0.00000000E+00  2.42074047E-02 -9.60889178E-08  0.00000000E+00
  0.00000000E+00  0.00000000E+00 -4.04344714E-03 -1.02216296E-08  0.00000000E+00
  0.00000000E+00  0.00000000E+00  1.79096688E+00 -8.02471108E-06  0.00000000E+00
  0.00000000E+00  4.25128959E-09  0.00000000E+00  0.00000000E+00 -2.83775156E-08
 -2.03415695E-03  0.00000000E+00  0.00000000E+00  0.00000000E+00  0.00000000E+00
  0.00000000E+00  0.00000000E+00  0.00000000E+00  2.49642673E-02  0.00000000E+00
  0.00000000E+00 -1.64030407E+00  0.00000000E+00  0.00000000E+00  0.00000000E+00
  0.00000000E+00  0.00000000E+00 -2.49642503E-02  0.00000000E+00  0.00000000E+00
  1.64030174E+00  3.12099317E-02  6.63540136E-02  8.27631960E-02 -1.10194699E+00
  3.97112836E-01  9.95834850E-01 -3.41742561E-06  5.79515172E-02  0.00000000E+00
 -6.71490835E-06  2.70676399E-01  0.00000000E+00 -1.94818723E-06  1.43458174E+00
  0.00000000E+00 -2.67084750E-06 -1.97289167E-01  0.00000000E+00 -1.06738826E-02
  0.00000000E+00  0.00000000E+00  2.49620573E-03 -2.03383313E-07  7.97444032E-02
  0.00000000E+00  0.00000000E+00 -1.97834485E-02  1.03210059E-06  1.01038486E+00
  0.00000000E+00  0.00000000E+00 -6.06151126E-01  4.00883100E-05  0.00000000E+00
  9.07409666E-08 -8.77091213E-03  0.00000000E+00  0.00000000E+00  1.54833479E-07
  1.54910776E-02  8.45855814E-02  2.26349746E+00 -1.55320906E+00 -8.40938699E-02
  6.20400011E-02  0.00000000E+00  7.13893127E-01 -4.86283949E-01  0.00000000E+00
  8.45837251E-02  2.26342717E+00 -1.55309583E+00  8.40935575E-02  6.20392800E-02
  0.00000000E+00 -7.13848474E-01 -4.86240951E-01  0.00000000E+00  0.00000000E+00
  0.00000000E+00  0.00000000E+00  0.00000000E+00  0.00000000E+00  0.00000000E+00
  0.00000000E+00  0.00000000E+00 -3.01073807E-01  0.00000000E+00  0.00000000E+00
 -8.12735266E-01  0.00000000E+00  0.00000000E+00  2.52649488E+00  0.00000000E+00
  0.00000000E+00  6.94679687E-01  0.00000000E+00 -4.34889029E-08 -1.77623774E-03
  0.00000000E+00  0.00000000E+00  0.00000000E+00 -2.32983766E-07 -2.65268190E-02
  0.00000000E+00  0.00000000E+00  0.00000000E+00 -8.70718578E-06 -7.87758933E-01
  0.00000000E+00  0.00000000E+00  6.62036973E-04  0.00000000E+00  0.00000000E+00
 -1.99013595E-03  2.24920820E-08  0.00000000E+00  0.00000000E+00  0.00000000E+00
  0.00000000E+00  0.00000000E+00  0.00000000E+00  0.00000000E+00  2.81846374E-03
  0.00000000E+00  0.00000000E+00 -1.28313842E+00  0.00000000E+00  0.00000000E+00
  0.00000000E+00  0.00000000E+00  0.00000000E+00  2.81845458E-03  0.00000000E+00
  0.00000000E+00 -1.28315678E+00 -7.71603242E-03 -1.65473470E-02 -3.01685608E-03
  1.25966425E-01  7.56142694E-01  4.40153758E+00 -6.20987991E-04  3.29200038E-01
  0.00000000E+00 -2.31016031E-03  8.05557530E-01  0.00000000E+00 -4.17004601E-03
 -2.83434037E+00  0.00000000E+00 -8.64168201E-04 -9.26042453E-01  0.00000000E+00
  1.33472725E-03  0.00000000E+00  0.00000000E+00  1.68958279E-03 -6.60562585E-05
 -5.25731804E-02  0.00000000E+00  0.00000000E+00 -6.82711020E-03  5.63107195E-04
 -4.25269555E-01  0.00000000E+00  0.00000000E+00 -4.43805603E-01  6.58193612E-03
  0.00000000E+00  4.71842662E-05  2.30040047E-03  0.00000000E+00  0.00000000E+00
  1.89397364E-05 -2.58792440E-03  6.06958325E-02 -4.41818506E-02 -3.04217143E+00
  2.50624730E-02 -2.29962511E-02  0.00000000E+00  4.72418744E-01  5.21789329E-01
  0.00000000E+00  6.01382431E-02 -6.08632725E-02 -3.02536057E+00 -2.57746321E-02
 -2.34497947E-02  0.00000000E+00 -4.63866027E-01  5.27505159E-01  0.00000000E+00
  2.36280377E-05  5.07093006E-05  6.17968512E-06 -3.64709531E-04 -2.36464712E-03
 -1.38669798E-02 -1.97841673E-01 -1.03690071E-03  0.00000000E+00 -7.35366044E-01
 -2.54465546E-03  0.00000000E+00 -1.31868028E+00  8.88319318E-03  0.00000000E+00
 -2.73020637E-01  2.91652079E-03  0.00000000E+00 -3.88934919E-06  0.00000000E+00
  0.00000000E+00 -5.54249282E-06 -2.09792740E-02  1.62277523E-04  0.00000000E+00
  0.00000000E+00  2.35880244E-05  1.78834015E-01  1.31656854E-03  0.00000000E+00
  0.00000000E+00  1.42065631E-03  2.08855702E+00  0.00000000E+00  1.50006847E-02
 -6.96979421E-06  0.00000000E+00  0.00000000E+00  6.02820174E-03  7.50981391E-06
  8.84304734E-02  2.64917206E+00 -2.66711117E+00 -1.13182922E-01  7.21840374E-02
  0.00000000E+00  1.35710912E+00 -9.08103633E-01  0.00000000E+00 -8.88151541E-02
 -2.64896125E+00  2.68625656E+00 -1.13030209E-01 -7.20423791E-02  0.00000000E+00
  1.36008744E+00  9.04812938E-01  0.00000000E+00 -3.27360470E-08 -6.50845910E-08
  1.41484999E-07 -1.04180161E-06 -2.76093307E-05 -1.05580889E-05 -2.79030741E-01
  1.55649584E-06  0.00000000E+00 -6.26272628E-01  6.00350214E-06  0.00000000E+00
  6.31064745E+00 -2.24616509E-05  0.00000000E+00  1.08918356E+00 -2.85435054E-06
  0.00000000E+00 -1.72799252E-08  0.00000000E+00  0.00000000E+00  2.15050573E-07
  2.93466873E-02  3.01515286E-07  0.00000000E+00  0.00000000E+00 -9.83857745E-07
 -1.43121399E-01 -2.42143137E-06  0.00000000E+00  0.00000000E+00 -8.94205809E-06
 -1.68107066E+00  0.00000000E+00 -9.38184834E-03  4.45399376E-08  0.00000000E+00
  0.00000000E+00 -5.43008343E-03  2.64647295E-09  1.64521189E-04 -1.80738617E+00
 -8.36793606E+00  1.11485939E-01 -4.84740702E-02  0.00000000E+00  1.58978975E+00
 -1.14220811E+00  0.00000000E+00 -1.63567166E-04  1.80739036E+00  8.36796640E+00
  1.11486411E-01  4.84738115E-02  0.00000000E+00  1.58979290E+00  1.14219650E+00
  0.00000000E+00  5.31685372E-02  1.09765072E-01  1.73098088E-01 -3.38768083E+00
  1.05578430E+01  4.00916294E+00  4.08096441E-08  5.17930382E-02  0.00000000E+00
 -2.37432422E-06 -3.42451080E-02  0.00000000E+00 -1.75089384E-05 -2.52566234E+00
  0.00000000E+00 -2.47963934E-06  1.53823773E-02  0.00000000E+00  1.81115064E-02
  0.00000000E+00  0.00000000E+00 -3.92811700E-03 -1.74089381E-08 -4.59838011E-02
  0.00000000E+00  0.00000000E+00  3.79802539E-02 -9.25110348E-08 -5.52402680E-01
  0.00000000E+00  0.00000000E+00  6.18335163E-01 -4.65910205E-06  0.00000000E+00
 -2.03767286E-08  5.14886954E-03  0.00000000E+00  0.00000000E+00 -1.14904421E-07
 -1.09227642E-02  8.12951516E-03 -1.69027582E+00 -4.64792543E+00  6.89585203E-02
 -4.95072453E-02  0.00000000E+00  1.00577605E+00 -1.22049446E+00  0.00000000E+00
  8.12891453E-03 -1.69028355E+00 -4.64799135E+00 -6.89593603E-02 -4.95069176E-02
  0.00000000E+00 -1.00579339E+00 -1.22049750E+00  0.00000000E+00  0.00000000E+00
  0.00000000E+00  0.00000000E+00  0.00000000E+00  0.00000000E+00  0.00000000E+00
  0.00000000E+00  0.00000000E+00  5.22302599E-07  0.00000000E+00  0.00000000E+00
 -1.93903526E-06  0.00000000E+00  0.00000000E+00  3.53482448E-06  0.00000000E+00
  0.00000000E+00  2.31955019E-07  0.00000000E+00 -1.94045968E-02  7.84154324E-08
  0.00000000E+00  0.00000000E+00  0.00000000E+00 -5.54025517E-01  5.95753200E-06
  0.00000000E+00  0.00000000E+00  0.00000000E+00  9.31120959E-01 -7.19227045E-06
  0.00000000E+00  0.00000000E+00  2.39405217E-07  0.00000000E+00  0.00000000E+00
 -1.29309372E-08 -1.76576623E-03  0.00000000E+00  0.00000000E+00  0.00000000E+00
  0.00000000E+00  0.00000000E+00  0.00000000E+00  0.00000000E+00 -5.31168763E-01
  0.00000000E+00  0.00000000E+00 -5.03917268E-01  0.00000000E+00  0.00000000E+00
  0.00000000E+00  0.00000000E+00  0.00000000E+00  5.31161476E-01  0.00000000E+00
  0.00000000E+00  5.03915436E-01  2.78390538E-04 -4.16138001E-04  3.50120887E-02
 -1.22403139E-01 -3.41382860E-01  5.94940287E-01 -4.11140230E-08  2.80058998E-02
  0.00000000E+00  1.84012564E-06  5.69585004E-02  0.00000000E+00  1.23472601E-05
  1.12419878E+00  0.00000000E+00  9.42075069E-07  4.28567753E-01  0.00000000E+00
 -1.16916626E-03  0.00000000E+00  0.00000000E+00 -2.09079858E-02  1.79137933E-07
 -9.33226747E-02  0.00000000E+00  0.00000000E+00 -7.12443738E-01  3.40908829E-06
  2.07379149E-01  0.00000000E+00  0.00000000E+00  1.23125965E+00 -1.12677501E-05
  0.00000000E+00 -3.37683671E-08  1.86776613E-03  0.00000000E+00  0.00000000E+00
 -1.56179006E-07  1.63678695E-02 -7.14763144E-02  7.02529796E-01 -5.23476049E-01
 -2.97666559E-01 -3.37534412E-01  0.00000000E+00 -3.69721331E-01 -6.91207572E-01
  0.00000000E+00 -7.14754108E-02  7.02541061E-01 -5.23438326E-01  2.97666352E-01
 -3.37533152E-01  0.00000000E+00  3.69732250E-01 -6.91212698E-01  0.00000000E+00
  0.00000000E+00  0.00000000E+00  0.00000000E+00  0.00000000E+00  0.00000000E+00
  0.00000000E+00  0.00000000E+00  0.00000000E+00  4.81937331E-02  0.00000000E+00
  0.00000000E+00 -1.37409181E-02  0.00000000E+00  0.00000000E+00  7.89002573E-01
  0.00000000E+00  0.00000000E+00  3.84184752E-01  0.00000000E+00  2.44774570E-07
  1.35811912E-02  0.00000000E+00  0.00000000E+00  0.00000000E+00  5.80709471E-06
  7.23552927E-01  0.00000000E+00  0.00000000E+00  0.00000000E+00 -9.26474291E-06
 -7.78875838E-01  0.00000000E+00  0.00000000E+00  2.79916370E-03  0.00000000E+00
  0.00000000E+00  1.07978628E-02  1.67443382E-07  0.00000000E+00  0.00000000E+00
  0.00000000E+00  0.00000000E+00  0.00000000E+00  0.00000000E+00  0.00000000E+00
 -4.70982064E-01  0.00000000E+00  0.00000000E+00 -4.75672160E-01  0.00000000E+00
  0.00000000E+00  0.00000000E+00  0.00000000E+00  0.00000000E+00 -4.70988029E-01
  0.00000000E+00  0.00000000E+00 -4.75683653E-01  2.54677298E-08 -3.09632865E-08
  4.35398847E-06 -2.10147837E-05 -3.61486049E-05 -2.27256509E-05 -1.73653872E-01
  2.40652827E-07  0.00000000E+00  6.87549336E-01  9.19747954E-06  0.00000000E+00
  2.80803196E+00  6.78416326E-06  0.00000000E+00 -2.28961763E-01  5.31146178E-06
  0.00000000E+00 -7.61561291E-08  0.00000000E+00  0.00000000E+00  1.25283542E-07
  8.70738238E-03 -3.09315257E-06  0.00000000E+00  0.00000000E+00 -9.76790396E-06
 -1.26707401E+00  6.90899767E-06  0.00000000E+00  0.00000000E+00 -5.02724176E-06
 -7.08957968E-01  0.00000000E+00 -3.31637571E-02 -2.19600907E-07  0.00000000E+00
  0.00000000E+00 -3.08646851E-02  1.26654159E-06  3.22276952E-01 -2.99197073E+00
 -7.99333240E-01  5.00261961E-02 -3.37767429E-01  0.00000000E+00  3.33510983E-01
 -2.30636256E-01  0.00000000E+00 -3.22273125E-01  2.99201523E+00  7.99373030E-01
  5.00421781E-02  3.37777028E-01  0.00000000E+00  3.33513259E-01  2.30633503E-01
  0.00000000E+00  1.75020928E-02  5.57349761E-02 -3.51170042E-01  3.99903894E-01
  2.18572086E+00 -1.63885663E+00  2.53767068E-06  3.93230045E-02  0.00000000E+00
 -2.12552632E-05 -4.07790572E-01  0.00000000E+00 -3.25450245E-05 -6.99594162E-01
  0.00000000E+00  1.01756113E-06  5.58655042E-01  0.00000000E+00  4.26628082E-04
  0.00000000E+00  0.00000000E+00 -5.23584554E-04 -2.17732278E-07 -1.16323292E+00
  0.00000000E+00  0.00000000E+00  1.91248090E-01  1.60148259E-05  2.52581872E-01
  0.00000000E+00  0.00000000E+00  1.21738617E-02  9.72800989E-06  0.00000000E+00
  1.01325576E-06  3.13968428E-02  0.00000000E+00  0.00000000E+00  2.99517168E-07
 -3.99184927E-02  2.85457310E-01 -1.97714867E+00  1.13469002E+00  1.39359025E-01
 -1.00850523E-01  0.00000000E+00  1.93893378E-01 -1.28785995E-01  0.00000000E+00
  2.85461090E-01 -1.97723839E+00  1.13468357E+00 -1.39378311E-01 -1.00857653E-01
  0.00000000E+00 -1.93893539E-01 -1.28791514E-01  0.00000000E+00 -7.51156015E-08
 -1.94737013E-07 -4.98066089E-07  9.07695549E-06 -1.67762886E-05  2.83274077E-06
  1.12183465E-01  6.70428837E-08  0.00000000E+00 -3.33484719E-01 -4.31616553E-06
  0.00000000E+00  1.17257233E+00  1.72122769E-06  0.00000000E+00 -5.26248444E-02
 -2.37013084E-06  0.00000000E+00 -1.03079693E-09  0.00000000E+00  0.00000000E+00
  1.01163851E-07 -1.06540384E-02  6.29271796E-06  0.00000000E+00  0.00000000E+00
  3.69323485E-06  4.88027712E-01 -3.23856699E-06  0.00000000E+00  0.00000000E+00
 -3.47057319E-07 -3.27440409E-01  0.00000000E+00  2.09564702E-02  1.05702101E-07
  0.00000000E+00  0.00000000E+00  1.96671085E-02 -2.05839131E-07 -1.12585988E-01
  3.44941721E-01 -2.94843202E+00 -5.89603789E-01 -5.46440298E-01  0.00000000E+00
  1.07308481E+00  4.25938830E-02  0.00000000E+00  1.12583182E-01 -3.44936559E-01
  2.94843416E+00 -5.89602843E-01  5.46438603E-01  0.00000000E+00  1.07308860E+00
 -4.26007615E-02  0.00000000E+00  0.00000000E+00  0.00000000E+00  0.00000000E+00
  0.00000000E+00  0.00000000E+00  0.00000000E+00  0.00000000E+00  0.00000000E+00
 -2.45287921E-01  0.00000000E+00  0.00000000E+00  8.94842696E-02  0.00000000E+00
  0.00000000E+00 -4.76427168E-01  0.00000000E+00  0.00000000E+00  2.60995584E-01
  0.00000000E+00 -4.24365350E-08 -6.41329354E-03  0.00000000E+00  0.00000000E+00
  0.00000000E+00 -2.33241137E-05  9.43353045E-01  0.00000000E+00  0.00000000E+00
  0.00000000E+00  9.79602353E-06 -1.22848837E-01  0.00000000E+00  0.00000000E+00
 -3.83136872E-03  0.00000000E+00  0.00000000E+00  1.56094783E-02 -5.30460870E-07
  0.00000000E+00  0.00000000E+00  0.00000000E+00  0.00000000E+00  0.00000000E+00
  0.00000000E+00  0.00000000E+00  7.56349018E-01  0.00000000E+00  0.00000000E+00
 -1.10247547E-01  0.00000000E+00  0.00000000E+00  0.00000000E+00  0.00000000E+00
  0.00000000E+00  7.56319270E-01  0.00000000E+00  0.00000000E+00 -1.10225539E-01
  0.00000000E+00  0.00000000E+00  0.00000000E+00  0.00000000E+00  0.00000000E+00
  0.00000000E+00  0.00000000E+00  0.00000000E+00 -7.48804780E-06  0.00000000E+00
  0.00000000E+00  8.64006603E-07  0.00000000E+00  0.00000000E+00 -1.24779368E-05
  0.00000000E+00  0.00000000E+00  5.83310482E-06  0.00000000E+00 -5.97714888E-03
 -2.45441621E-07  0.00000000E+00  0.00000000E+00  0.00000000E+00  1.16469124E+00
  1.99989594E-05  0.00000000E+00  0.00000000E+00  0.00000000E+00 -3.54770437E-01
 -8.49169247E-07  0.00000000E+00  0.00000000E+00  2.05098951E-07  0.00000000E+00
  0.00000000E+00  2.30136705E-07  1.93043259E-03  0.00000000E+00  0.00000000E+00
  0.00000000E+00  0.00000000E+00  0.00000000E+00  0.00000000E+00  0.00000000E+00
 -7.19157097E-01  0.00000000E+00  0.00000000E+00  3.93009289E-01  0.00000000E+00
  0.00000000E+00  0.00000000E+00  0.00000000E+00  0.00000000E+00  7.19197207E-01
  0.00000000E+00  0.00000000E+00 -3.93013057E-01  1.71288548E-02  7.16814627E-02
 -8.81591257E-01  2.73926529E+00 -3.20981782E-01 -2.16163674E+00  3.16467666E-06
  4.17642146E-01  0.00000000E+00 -3.87084971E-05 -1.45449790E+00  0.00000000E+00
 -1.06253963E-05  2.50080567E-01  0.00000000E+00 -1.81755630E-07  3.11300107E-01
  0.00000000E+00  1.27611440E-02  0.00000000E+00  0.00000000E+00 -8.40469068E-03
  1.03894970E-07  3.80849762E-02  0.00000000E+00  0.00000000E+00  5.43701180E-01
  2.68332846E-06 -3.34944308E-01  0.00000000E+00  0.00000000E+00  2.62402673E-01
  7.32900223E-06  0.00000000E+00  1.39267048E-06  7.16319465E-02  0.00000000E+00
  0.00000000E+00 -8.05571633E-07 -1.43367923E-01  6.90435321E-01 -2.67444229E+00
  2.11356355E+00  3.85064919E-01 -7.89476602E-01  0.00000000E+00 -3.63954252E-01
  1.76350489E-01  0.00000000E+00  6.90431393E-01 -2.67451616E+00  2.11358138E+00
 -3.85094949E-01 -7.89502871E-01  0.00000000E+00  3.63960712E-01  1.76353753E-01
  0.00000000E+00 -2.29973423E-02 -8.25348466E-02  7.12307393E-01 -1.59726170E+00
 -5.63342986E-01  6.70587182E-02 -1.50745289E-05  6.75570196E-02  0.00000000E+00
  9.75520037E-05  5.32117266E-01  0.00000000E+00  2.10508217E-05  1.20750227E+00
  0.00000000E+00 -4.59954089E-06 -4.51140792E-02  0.00000000E+00 -4.39345626E-03
  0.00000000E+00  0.00000000E+00 -2.08991298E-03  1.60139100E-06  4.54739816E-02
  0.00000000E+00  0.00000000E+00  1.03173550E+00 -2.78609997E-05  3.64000520E-01
  0.00000000E+00  0.00000000E+00  6.10694491E-02 -3.01298350E-05  0.00000000E+00
 -4.35526776E-06 -2.20475303E-02  0.00000000E+00  0.00000000E+00 -2.26763315E-06
  9.34803500E-02 -4.45205774E-01  1.78917464E+00 -3.52497320E-01 -8.53986956E-01
 -4.36662100E-01  0.00000000E+00  8.60283413E-02 -1.81731281E-01  0.00000000E+00
 -4.45238952E-01  1.78942651E+00 -3.52650495E-01  8.54060991E-01 -4.36607829E-01
  0.00000000E+00 -8.60724737E-02 -1.81763854E-01  0.00000000E+00 -8.82700709E-07
 -3.33288075E-06  2.73822914E-05 -4.06649159E-05 -1.61438081E-05  1.62755513E-05
  5.02066293E-01  1.49971788E-07  0.00000000E+00 -2.69403433E+00  2.01009352E-05
  0.00000000E+00 -3.68120514E-01  3.78529720E-05  0.00000000E+00  1.63162737E-01
 -5.40922127E-06  0.00000000E+00 -6.03724737E-07  0.00000000E+00  0.00000000E+00
 -1.59203469E-07 -5.19300711E-02  3.16561240E-07  0.00000000E+00  0.00000000E+00
  3.23023941E-05  4.58603905E-01  1.26269393E-05  0.00000000E+00  0.00000000E+00
  6.42936429E-06  8.71736437E-01  0.00000000E+00  1.26143346E-01 -1.56098577E-06
  0.00000000E+00  0.00000000E+00  7.70987224E-02  3.24699613E-06 -6.16446915E-01
  3.50320974E+00 -2.37912750E+00 -9.23569818E-01  8.57019023E-01  0.00000000E+00
  6.36329446E-01 -4.89593941E-01  0.00000000E+00  6.16393096E-01 -3.50307925E+00
  2.37907848E+00 -9.23526054E-01 -8.57038490E-01  0.00000000E+00  6.36324407E-01
  4.89575893E-01  0.00000000E+00 -1.45967369E-02 -2.77846699E-02 -3.44130801E-01
  1.62168026E+00  2.74433931E+00  1.40939477E+00  5.20835599E-05 -9.19063691E-01
  0.00000000E+00  1.78316126E-05  1.96971159E-01  0.00000000E+00  2.33902088E-04
 -1.93976332E+00  0.00000000E+00  1.95821181E-05 -1.47495366E-01  0.00000000E+00
  2.60143381E-02  0.00000000E+00  0.00000000E+00 -1.45859146E-02  3.37810520E-06
 -5.75575577E-01  0.00000000E+00  0.00000000E+00  4.79222170E-01 -9.16311658E-05
 -2.81018918E-01  0.00000000E+00  0.00000000E+00 -1.34799386E-02 -4.33866763E-05
  0.00000000E+00 -3.02780315E-06  5.12477432E-02  0.00000000E+00  0.00000000E+00
 -3.80580769E-06 -9.38970295E-02 -5.24953768E-02 -2.01748952E+00 -1.13013258E+00
  8.16617488E-01 -8.19815302E-01  0.00000000E+00  2.67712861E-01  3.30856596E-02
  0.00000000E+00 -5.24752591E-02 -2.01717701E+00 -1.12967807E+00 -8.16493851E-01
 -8.19712394E-01  0.00000000E+00 -2.67612685E-01  3.31679166E-02  0.00000000E+00
  4.01460204E-07  2.58737671E-07  2.84613528E-05 -1.24386586E-04 -1.36815054E-04
 -1.02855224E-04  8.72535411E-01  6.62773759E-05  0.00000000E+00  3.73786625E-01
 -3.38629440E-05  0.00000000E+00  3.60017912E+00  1.08599284E-04  0.00000000E+00
  2.99474146E-01  1.18677577E-05  0.00000000E+00 -1.32647596E-06  0.00000000E+00
  0.00000000E+00  9.46165449E-07  4.48247736E-02  2.93460377E-05  0.00000000E+00
  0.00000000E+00 -3.97369593E-05 -1.29051983E+00  1.58575047E-05  0.00000000E+00
  0.00000000E+00 -1.30776953E-06 -6.83014659E-01  0.00000000E+00 -5.35661723E-02
 -2.89179402E-06  0.00000000E+00  0.00000000E+00 -4.63748442E-02  5.60383226E-06
 -1.71048692E-01 -2.50236207E+00 -3.39636192E+00  1.00719478E+00 -7.82911844E-01
  0.00000000E+00  7.31834020E-01 -5.68503840E-01  0.00000000E+00  1.71065355E-01
  2.50257920E+00  3.39651941E+00  1.00728464E+00  7.83006896E-01  0.00000000E+00
  7.31865341E-01  5.68485854E-01  0.00000000E+00  0.00000000E+00  0.00000000E+00
  0.00000000E+00  0.00000000E+00  0.00000000E+00  0.00000000E+00  0.00000000E+00
  0.00000000E+00 -1.20618980E+00  0.00000000E+00  0.00000000E+00  1.93402476E+00
  0.00000000E+00  0.00000000E+00 -1.38810111E+00  0.00000000E+00  0.00000000E+00
 -1.93120156E-01  0.00000000E+00  2.45125053E-08 -2.37233449E-03  0.00000000E+00
  0.00000000E+00  0.00000000E+00 -3.52832464E-06 -2.49708305E-01  0.00000000E+00
  0.00000000E+00  0.00000000E+00  2.60494857E-06  2.53518366E-01  0.00000000E+00
  0.00000000E+00  1.23943967E-02  0.00000000E+00  0.00000000E+00 -8.41207153E-03
  5.59859803E-08  0.00000000E+00  0.00000000E+00  0.00000000E+00  0.00000000E+00
  0.00000000E+00  0.00000000E+00  0.00000000E+00 -2.56503099E-01  0.00000000E+00
  0.00000000E+00  4.78657595E-01  0.00000000E+00  0.00000000E+00  0.00000000E+00
  0.00000000E+00  0.00000000E+00 -2.56506654E-01  0.00000000E+00  0.00000000E+00
  4.78663486E-01 -1.07630391E-01 -3.56379441E-01  2.11513581E+00 -2.83790324E+00
  6.80605614E+00  5.02912102E-01 -9.55483103E-06  5.14063514E-01  0.00000000E+00
 -7.99007733E-06 -1.87573258E+00  0.00000000E+00 -4.12470772E-05 -8.17858225E-01
  0.00000000E+00 -3.44139357E-06  1.64023364E-01  0.00000000E+00  7.28452413E-03
  0.00000000E+00  0.00000000E+00 -1.52379659E-02 -4.15878629E-08 -6.69858630E-01
  0.00000000E+00  0.00000000E+00 -4.32683311E-03  1.04393951E-05 -1.43835046E-01
  0.00000000E+00  0.00000000E+00  1.85460153E-01  4.76964366E-06  0.00000000E+00
  5.90812644E-07  7.56543311E-03  0.00000000E+00  0.00000000E+00 -4.06324626E-08
 -4.70931343E-02 -1.21827999E-01 -2.08688233E+00 -1.31059109E+00  8.95791937E-01
 -3.50674836E-01  0.00000000E+00  4.57541647E-01 -5.88925402E-01  0.00000000E+00
 -1.21836277E-01 -2.08693433E+00 -1.31068758E+00 -8.95812660E-01 -3.50681324E-01
  0.00000000E+00 -4.57565914E-01 -5.88939087E-01  0.00000000E+00  7.19057933E-02
  2.79120336E-01 -2.87648536E+00  6.51143135E+00 -3.33709993E+00 -2.11848709E+00
 -1.30750322E-05  5.33377659E-01  0.00000000E+00  2.44752450E-05 -2.42843689E+00
  0.00000000E+00 -1.70567258E-05  7.65414174E-01  0.00000000E+00 -2.36516279E-06
  1.79155628E-01  0.00000000E+00  3.89908454E-02  0.00000000E+00  0.00000000E+00
 -2.63433931E-02 -3.34725414E-07 -8.51609526E-01  0.00000000E+00  0.00000000E+00
  2.62664654E-01 -1.42703427E-05  1.35470733E-01  0.00000000E+00  0.00000000E+00
 -2.26198179E-01  6.39003589E-06  0.00000000E+00  2.26737193E-06 -1.07990360E-01
  0.00000000E+00  0.00000000E+00  1.83466547E-06  1.55145111E-01 -6.68246729E-01
 -1.37154933E+00  2.27524368E+00  1.08797735E+00 -5.93940321E-01  0.00000000E+00
 -3.19719456E-01  3.82703249E-01  0.00000000E+00 -6.68237191E-01 -1.37154558E+00
  2.27520666E+00 -1.08796704E+00 -5.93919124E-01  0.00000000E+00  3.19713457E-01
  3.82695330E-01  0.00000000E+00 -3.94491103E-07 -1.85187914E-06  2.76663563E-05
 -8.94963425E-05  3.83406326E-05  3.22315334E-05 -7.59101064E-01 -3.75357745E-07
  0.00000000E+00  3.27848718E+00  2.42576637E-05  0.00000000E+00 -1.19524179E+00
 -5.66488501E-06  0.00000000E+00 -3.29031893E-01 -2.72188918E-06  0.00000000E+00
 -1.34975746E-06  0.00000000E+00  0.00000000E+00  9.71647238E-07  3.79544968E-02
  1.31656162E-05  0.00000000E+00  0.00000000E+00 -1.50157044E-05 -1.56448209E+00
 -2.19887088E-06  0.00000000E+00  0.00000000E+00  4.42411616E-06  3.22613980E-01
  0.00000000E+00  3.10070434E-01  1.02839886E-06  0.00000000E+00  0.00000000E+00
  1.08044845E-01 -4.39459358E-06 -9.55499376E-01 -1.11967893E+00  1.98205117E+00
  9.01815368E-01 -7.98743241E-01  0.00000000E+00 -2.86335632E-01  2.04996164E-01
  0.00000000E+00  9.55528417E-01  1.11972589E+00 -1.98211678E+00  9.01848103E-01
  7.98756746E-01  0.00000000E+00 -2.86341843E-01 -2.05000946E-01  0.00000000E+00
  0.00000000E+00  0.00000000E+00  0.00000000E+00  0.00000000E+00  0.00000000E+00
  0.00000000E+00  0.00000000E+00  0.00000000E+00 -4.99959389E-03  0.00000000E+00
  0.00000000E+00  1.41583375E-02  0.00000000E+00  0.00000000E+00  2.48423167E-03
  0.00000000E+00  0.00000000E+00 -5.84983125E-03  0.00000000E+00  3.14936300E-08
  9.97518408E-03  0.00000000E+00  0.00000000E+00  0.00000000E+00 -7.46040859E-08
 -3.58999590E-02  0.00000000E+00  0.00000000E+00  0.00000000E+00  5.16290980E-08
  4.59168867E-03  0.00000000E+00  0.00000000E+00  2.77050034E-01  0.00000000E+00
  0.00000000E+00  9.60774823E-01 -6.11825666E-06  0.00000000E+00  0.00000000E+00
  0.00000000E+00  0.00000000E+00  0.00000000E+00  0.00000000E+00  0.00000000E+00
 -2.16065611E-02  0.00000000E+00  0.00000000E+00  4.35074306E-03  0.00000000E+00
  0.00000000E+00  0.00000000E+00  0.00000000E+00  0.00000000E+00 -2.16064190E-02
  0.00000000E+00  0.00000000E+00  4.35075798E-03  9.87279157E-04  4.94165807E-03
 -9.37171066E-02  2.58544941E-01  2.00095246E-01 -6.86680193E-02  1.11272179E-07
  4.55322276E-02  0.00000000E+00 -2.86894631E-06 -2.28525033E-01  0.00000000E+00
 -5.74566142E-06 -2.70173682E-01  0.00000000E+00  9.08423729E-08 -6.00129086E-02
  0.00000000E+00 -2.18155028E-02  0.00000000E+00  0.00000000E+00 -1.09883975E-01
  3.14351280E-07 -4.42238795E-02  0.00000000E+00  0.00000000E+00 -7.37599476E-02
  2.18845149E-06 -5.24361389E-02  0.00000000E+00  0.00000000E+00 -1.77451731E-01
  2.56009765E-06  0.00000000E+00  5.86468603E-06  8.97804376E-01  0.00000000E+00
  0.00000000E+00 -1.53099481E-06  4.65532077E-01 -8.55487500E-03 -2.97045988E-01
  7.02055347E-02  2.24856671E-01  1.24588970E-01  0.00000000E+00  5.44951748E-02
  1.02419846E-01  0.00000000E+00 -8.55604530E-03 -2.97055332E-01  7.01950420E-02
 -2.24856555E-01  1.24586979E-01  0.00000000E+00 -5.44985770E-02  1.02420446E-01
  0.00000000E+00  0.00000000E+00  0.00000000E+00  0.00000000E+00  0.00000000E+00
  0.00000000E+00  0.00000000E+00  0.00000000E+00  0.00000000E+00  5.08709826E-02
  0.00000000E+00  0.00000000E+00 -1.39678015E-01  0.00000000E+00  0.00000000E+00
 -1.75863823E-01  0.00000000E+00  0.00000000E+00 -3.97662425E-02  0.00000000E+00
 -7.03685319E-06  1.22420345E-01  0.00000000E+00  0.00000000E+00  0.00000000E+00
 -2.38045070E-06  7.67068954E-02  0.00000000E+00  0.00000000E+00  0.00000000E+00
 -6.90648718E-06  1.16396459E-01  0.00000000E+00  0.00000000E+00  9.99453745E-01
  0.00000000E+00  0.00000000E+00 -2.94224531E-01  4.85326181E-05  0.00000000E+00
  0.00000000E+00  0.00000000E+00  0.00000000E+00  0.00000000E+00  0.00000000E+00
  0.00000000E+00  2.98250577E-01  0.00000000E+00  0.00000000E+00  6.52171744E-02
  0.00000000E+00  0.00000000E+00  0.00000000E+00  0.00000000E+00  0.00000000E+00
  2.98225864E-01  0.00000000E+00  0.00000000E+00  6.52112005E-02  0.00000000E+00
  0.00000000E+00  0.00000000E+00  0.00000000E+00  0.00000000E+00  0.00000000E+00
  0.00000000E+00  0.00000000E+00 -2.73798374E-06  0.00000000E+00  0.00000000E+00
  8.62490962E-06  0.00000000E+00  0.00000000E+00  8.57796961E-06  0.00000000E+00
  0.00000000E+00  2.17747476E-06  0.00000000E+00 -1.88477130E-01 -6.00954546E-06
  0.00000000E+00  0.00000000E+00  0.00000000E+00 -8.33522278E-02 -4.21640041E-06
  0.00000000E+00  0.00000000E+00  0.00000000E+00 -1.71078485E-01 -5.16421876E-06
  0.00000000E+00  0.00000000E+00 -4.53818886E-05  0.00000000E+00  0.00000000E+00
  2.00196354E-05  1.04520303E+00  0.00000000E+00  0.00000000E+00  0.00000000E+00
  0.00000000E+00  0.00000000E+00  0.00000000E+00  0.00000000E+00  3.07588711E-01
  0.00000000E+00  0.00000000E+00  7.73354324E-02  0.00000000E+00  0.00000000E+00
  0.00000000E+00  0.00000000E+00  0.00000000E+00 -3.07619443E-01  0.00000000E+00
  0.00000000E+00 -7.73422087E-02  6.56817983E-08  2.32513175E-07 -2.43214861E-06
  1.84404066E-06 -6.24912843E-07 -1.51286965E-06 -9.19544754E-02  1.67033508E-06
  0.00000000E+00  5.51085970E-01 -5.86839099E-06  0.00000000E+00  5.98021995E-01
 -4.14443893E-06  0.00000000E+00 -4.09153520E-02 -4.82088096E-07  0.00000000E+00
 -7.47630588E-07  0.00000000E+00  0.00000000E+00 -2.05655726E-06  2.55665914E-02
 -5.53924616E-07  0.00000000E+00  0.00000000E+00 -4.03817857E-06 -2.51141317E-01
 -7.51312531E-07  0.00000000E+00  0.00000000E+00 -3.04998101E-06 -1.84208115E-01
  0.00000000E+00 -5.40243790E-01  7.78890168E-06  0.00000000E+00  0.00000000E+00
  9.22902718E-01 -5.58424540E-06 -9.64528894E-02 -6.03460097E-01 -5.38784695E-01
 -1.34085387E-02 -4.02596415E-01  0.00000000E+00  2.12472983E-01  1.63546701E-03
  0.00000000E+00  9.64536388E-02  6.03455820E-01  5.38788549E-01 -1.34139015E-02
  4.02601106E-01  0.00000000E+00  2.12471829E-01 -1.63491148E-03  0.00000000E+00
  6.46578302E-07  2.24276132E-06 -2.90372662E-05  5.53163060E-05  1.44120679E-05
  1.12250647E-05 -3.09249240E-01  7.92109012E-06  0.00000000E+00  1.84655179E+00
 -3.65696349E-05  0.00000000E+00 -1.21371335E-01 -5.42819047E-06  0.00000000E+00
  3.25175279E-02 -1.34176575E-06  0.00000000E+00 -2.10434061E-05  0.00000000E+00
  0.00000000E+00  6.51497110E-06 -7.41529582E-01 -2.79371987E-06  0.00000000E+00
  0.00000000E+00 -3.57815789E-06 -5.88777744E-01 -6.24977264E-06  0.00000000E+00
  0.00000000E+00  3.69594491E-06 -1.94928766E-01  0.00000000E+00 -6.77551023E-01
  1.52634623E-05  0.00000000E+00  0.00000000E+00 -4.21942919E-01 -2.15550524E-05
 -6.48610471E-01 -9.13211766E-01  5.69077119E-01  6.81566053E-01 -4.88206909E-01
  0.00000000E+00 -1.94853774E-01  1.36624613E-01  0.00000000E+00  6.48585638E-01
  9.13165809E-01 -5.69090962E-01  6.81534492E-01  4.88177321E-01  0.00000000E+00
 -1.94850588E-01 -1.36625303E-01  0.00000000E+00  1.54346208E-02  5.46303081E-02
 -8.06938536E-01  2.02808997E+00 -3.05052436E-01  1.28028788E-01  8.19098770E-06
  1.40905590E-01  0.00000000E+00 -6.18528634E-05 -9.28257382E-01  0.00000000E+00
  1.25887105E-05 -7.14292541E-03  0.00000000E+00 -2.36176637E-07 -6.70605826E-02
  0.00000000E+00 -9.40449123E-01  0.00000000E+00  0.00000000E+00  3.17192196E-01
  2.80921373E-05  1.55195644E-01  0.00000000E+00  0.00000000E+00 -3.80884292E-02
  1.26230622E-05 -2.01080470E-01  0.00000000E+00  0.00000000E+00  1.02698312E-01
  3.91156120E-06  0.00000000E+00  1.72076282E-05  2.87324850E-01  0.00000000E+00
  0.00000000E+00  4.81131849E-06 -5.33858245E-01 -4.17011234E-01 -5.84330678E-01
  5.39856731E-02  4.86547460E-01 -3.36552532E-01  0.00000000E+00 -1.25933481E-01
  4.84783471E-02  0.00000000E+00 -4.17053680E-01 -5.84383318E-01  5.40437316E-02
 -4.86590693E-01 -3.36580852E-01  0.00000000E+00  1.25951228E-01  4.84900911E-02
  0.00000000E+00  0.00000000E+00  0.00000000E+00  0.00000000E+00  0.00000000E+00
  0.00000000E+00  0.00000000E+00  0.00000000E+00  0.00000000E+00 -3.89982944E-02
  0.00000000E+00  0.00000000E+00  1.47190212E-01  0.00000000E+00  0.00000000E+00
 -1.53670780E-01  0.00000000E+00  0.00000000E+00 -1.90689141E-01  0.00000000E+00
 -2.16623179E-06  1.18863302E+00  0.00000000E+00  0.00000000E+00  0.00000000E+00
  8.24785334E-07 -7.89283500E-01  0.00000000E+00  0.00000000E+00  0.00000000E+00
 -6.58674380E-07  2.64176766E-01  0.00000000E+00  0.00000000E+00 -1.39794157E-01
  0.00000000E+00  0.00000000E+00  3.39743051E-02  5.40792606E-08  0.00000000E+00
  0.00000000E+00  0.00000000E+00  0.00000000E+00  0.00000000E+00  0.00000000E+00
  0.00000000E+00 -1.35889755E-01  0.00000000E+00  0.00000000E+00  1.84167919E-01
  0.00000000E+00  0.00000000E+00  0.00000000E+00  0.00000000E+00  0.00000000E+00
 -1.35889632E-01  0.00000000E+00  0.00000000E+00  1.84166446E-01  0.00000000E+00
  0.00000000E+00  0.00000000E+00  0.00000000E+00  0.00000000E+00  0.00000000E+00
  0.00000000E+00  0.00000000E+00 -5.10603664E-07  0.00000000E+00  0.00000000E+00
  2.46201889E-06  0.00000000E+00  0.00000000E+00 -1.79549627E-06  0.00000000E+00
  0.00000000E+00 -1.38897009E-06  0.00000000E+00  1.18926595E+00  1.95737484E-06
  0.00000000E+00  0.00000000E+00  0.00000000E+00 -8.62857825E-01 -2.05424227E-06
  0.00000000E+00  0.00000000E+00  0.00000000E+00  3.22544038E-01  3.92236467E-07
  0.00000000E+00  0.00000000E+00 -1.96423499E-06  0.00000000E+00  0.00000000E+00
  1.93730418E-06  2.20811859E-01  0.00000000E+00  0.00000000E+00  0.00000000E+00
  0.00000000E+00  0.00000000E+00  0.00000000E+00  0.00000000E+00  1.83815523E-01
  0.00000000E+00  0.00000000E+00 -2.43649520E-01  0.00000000E+00  0.00000000E+00
  0.00000000E+00  0.00000000E+00  0.00000000E+00 -1.83818857E-01  0.00000000E+00
  0.00000000E+00  2.43652372E-01  2.64225405E-03  1.23695891E-02 -2.44518503E-01
  5.94265666E-01  7.20493864E-01  9.63881787E-02  6.65474624E-07  9.86794965E-02
  0.00000000E+00 -9.23377477E-06 -5.80389473E-01  0.00000000E+00  2.54183585E-06
 -1.17759843E-01  0.00000000E+00  3.12229051E-07  1.82519649E-01  0.00000000E+00
  4.94302462E-01  0.00000000E+00  0.00000000E+00  1.08065150E+00 -2.88781811E-07
 -5.02754982E-01  0.00000000E+00  0.00000000E+00 -7.51997193E-01  4.84049550E-06
  3.21149856E-02  0.00000000E+00  0.00000000E+00  2.89871181E-01 -1.24808718E-06
  0.00000000E+00  1.70900125E-06  2.00486298E-01  0.00000000E+00  0.00000000E+00
  1.80966408E-06 -1.19286080E-01 -1.61978548E-01 -5.13160297E-01 -1.15302794E-01
  3.49492553E-01  2.82383921E-03  0.00000000E+00 -3.82502277E-02 -1.99263758E-01
  0.00000000E+00 -1.61985038E-01 -5.13167983E-01 -1.15290954E-01 -3.49498794E-01
  2.82377869E-03  0.00000000E+00  3.82535473E-02 -1.99262251E-01  0.00000000E+00
  2.25395383E-02  8.08952404E-02 -1.29378338E+00  3.10414093E+00  7.45991593E-01
 -6.53445912E-01 -1.10951150E-05  2.73401576E-01  0.00000000E+00  4.65671930E-05
 -1.69242075E+00  0.00000000E+00  2.81526523E-05 -1.94653653E-01  0.00000000E+00
 -1.98204432E-06  1.30596511E-01  0.00000000E+00  5.62335997E-01  0.00000000E+00
  0.00000000E+00 -4.49202722E-01  4.94042589E-05 -1.16196301E+00  0.00000000E+00
  0.00000000E+00  7.34763741E-01 -7.14522336E-05  5.48046170E-02  0.00000000E+00
  0.00000000E+00 -7.61699196E-02  2.63590940E-07  0.00000000E+00 -1.76103208E-05
  4.52080439E-01  0.00000000E+00  0.00000000E+00 -2.29245645E-05 -9.71537113E-01
 -8.56967269E-01 -1.41280384E+00  5.14022123E-01  7.31087022E-01 -6.77938852E-01
  0.00000000E+00  7.41551621E-02  1.62375818E-02  0.00000000E+00 -8.56924976E-01
 -1.41272102E+00  5.14033443E-01 -7.31048458E-01 -6.77908403E-01  0.00000000E+00
 -7.41506180E-02  1.62516020E-02  0.00000000E+00 -9.05702914E-07 -3.41793987E-06
  5.93821492E-05 -1.59106569E-04 -2.55741898E-05  3.04043481E-05 -3.68380015E-01
 -1.02613342E-05  0.00000000E+00  2.19840094E+00  7.68915156E-05  0.00000000E+00
  6.67433595E-01  4.04565547E-06  0.00000000E+00 -9.44901603E-02 -5.92046646E-06
  0.00000000E+00 -1.63498017E-05  0.00000000E+00  0.00000000E+00  1.87521931E-05
  9.97888783E-01  4.84646801E-05  0.00000000E+00  0.00000000E+00 -3.97707981E-05
 -2.03929780E+00 -1.20492432E-06  0.00000000E+00  0.00000000E+00  1.47531629E-06
 -5.31537650E-02  0.00000000E+00 -6.64148240E-01 -1.89966353E-05  0.00000000E+00
  0.00000000E+00 -4.47353572E-01  4.73606631E-05 -9.24302873E-01 -1.54707732E+00
  1.66188287E-01  7.70390150E-01 -5.25926479E-01  0.00000000E+00  4.24848366E-03
 -1.28806403E-01  0.00000000E+00  9.24391205E-01  1.54721197E+00 -1.66239499E-01
  7.70460194E-01  5.25980122E-01  0.00000000E+00  4.25209687E-03  1.28804988E-01
  0.00000000E+00 -1.39432028E+00  1.71825509E+00 -1.75629706E+00  2.28598693E+00
 -1.89559118E+00 -6.24158773E-01 -5.85194493E-08  3.82429456E-02  0.00000000E+00
 -1.14989288E-06 -2.45817638E-01  0.00000000E+00  2.89850685E-06  2.50682084E-01
  0.00000000E+00  4.73734115E-07  2.58867058E-02  0.00000000E+00  6.40156772E-03
  0.00000000E+00  0.00000000E+00 -7.56517046E-03  2.64411930E-07 -8.65365895E-02
  0.00000000E+00  0.00000000E+00  5.24552459E-02 -6.01427002E-07  2.96245343E-02
  0.00000000E+00  0.00000000E+00 -6.75669438E-02  4.90035648E-07  0.00000000E+00
  8.58397445E-08  2.46767771E-02  0.00000000E+00  0.00000000E+00 -3.90792600E-07
 -4.81006002E-02 -9.92867004E-02 -8.58401578E-02  8.02016522E-01  9.88794426E-02
 -7.49030751E-02  0.00000000E+00 -1.65311915E-01  2.00024026E-01  0.00000000E+00
 -9.92879275E-02 -8.58396630E-02  8.02028956E-01 -9.88792045E-02 -7.49018691E-02
  0.00000000E+00  1.65315424E-01  2.00024816E-01  0.00000000E+00
Beta MO coefficients                       R   N=        3364
  4.35357154E-01  6.39612769E-01  3.45728787E-02 -2.57628697E-02  2.06724180E-02
  7.17967247E-03 -7.43830463E-09 -1.79580101E-03  0.00000000E+00  4.57780049E-09
  2.90160692E-03  0.00000000E+00 -3.12142632E-08 -3.24848414E-03  0.00000000E+00
 -4.56070059E-09 -3.93401744E-04  0.00000000E+00 -1.77196232E-04  0.00000000E+00
  0.00000000E+00  9.83978677E-05 -4.58867267E-10  7.20788373E-04  0.00000000E+00
  0.00000000E+00 -3.88843728E-04  9.38704507E-09 -3.73731875E-04  0.00000000E+00
  0.00000000E+00  6.49345895E-04 -4.66411806E-09  0.00000000E+00  7.15003239E-10
 -1.47811661E-04  0.00000000E+00  0.00000000E+00  2.76065579E-09  2.70352149E-04
  8.26956653E-04  5.99091146E-04 -8.87345553E-03 -7.77539063E-04  5.34672928E-04
  0.00000000E+00  1.81262748E-03 -2.03067740E-03  0.00000000E+00  8.26961121E-04
  5.99075186E-04 -8.87357866E-03  7.77529350E-04  5.34656991E-04  0.00000000E+00
 -1.81266217E-03 -2.03068309E-03  0.00000000E+00 -9.74919516E-02 -2.29714482E-01
  3.32062776E-01  4.44532757E-01  1.48408967E-01 -5.19062694E-04 -1.02216856E-06
 -8.21040625E-02  0.00000000E+00 -5.07239877E-07 -7.03723109E-02  0.00000000E+00
 -5.40500416E-08 -8.64975848E-03  0.00000000E+00 -7.19618401E-10  2.90752334E-04
  0.00000000E+00 -4.15679268E-03  0.00000000E+00  0.00000000E+00  1.02463457E-03
  6.49037572E-08 -1.18981734E-02  0.00000000E+00  0.00000000E+00  1.91934589E-03
 -4.66473973E-08  2.03767458E-03  0.00000000E+00  0.00000000E+00 -2.46166699E-03
  1.44514820E-08  0.00000000E+00  2.43678123E-08  2.67709844E-03  0.00000000E+00
  0.00000000E+00 -2.76948927E-08 -3.99017060E-03  9.28147252E-02  7.24443444E-02
  8.63508125E-03 -1.45065528E-02  8.46397153E-03  0.00000000E+00 -7.81069539E-04
  5.41689807E-04  0.00000000E+00  9.28158922E-02  7.24450476E-02  8.63510752E-03
  1.45067877E-02  8.46405079E-03  0.00000000E+00  7.81066886E-04  5.41691625E-04
  0.00000000E+00 -2.07913914E-07 -4.90039864E-07  6.08448044E-07  1.59892515E-06
  1.12284675E-06  1.77885974E-07  3.84354965E-01 -2.99358549E-07  0.00000000E+00
  3.04294793E-01 -5.13344278E-07  0.00000000E+00  1.35152446E-01 -2.11386881E-07
  0.00000000E+00  7.25933216E-03 -9.92044462E-09  0.00000000E+00  3.78270030E-08
  0.00000000E+00  0.00000000E+00 -9.14186981E-08 -1.17217408E-02 -2.74400666E-08
  0.00000000E+00  0.00000000E+00 -1.34673130E-07 -2.68113977E-02  8.76197562E-09
  0.00000000E+00  0.00000000E+00  8.11642516E-10 -4.93731958E-03  0.00000000E+00
 -5.30502466E-03  8.61509250E-09  0.00000000E+00  0.00000000E+00  2.39764161E-04
  1.05111171E-08  1.47007221E-01  1.81530661E-01  2.22808413E-02 -7.71980530E-03
  1.68494512E-02  0.00000000E+00  7.28533475E-03 -2.50548905E-03  0.00000000E+00
 -1.47007593E-01 -1.81530514E-01 -2.22806685E-02 -7.71992978E-03 -1.68494557E-02
  0.00000000E+00  7.28537497E-03  2.50540743E-03  0.00000000E+00 -3.57925563E-02
 -8.56878130E-02  1.31269225E-01  2.02676997E-01  2.01029831E-01  2.99703733E-02
  7.87252903E-07  4.14844492E-01  0.00000000E+00  4.45763848E-07  3.36850929E-01
  0.00000000E+00  3.68553980E-07  2.16657177E-01  0.00000000E+00  1.86908122E-08
  2.87308210E-02  0.00000000E+00  4.85413043E-03  0.00000000E+00  0.00000000E+00
  3.42145476E-03 -4.09168341E-08  1.08769120E-02  0.00000000E+00  0.00000000E+00
  1.92081629E-02 -7.71973983E-08  8.78955967E-03  0.00000000E+00  0.00000000E+00
  2.77489984E-02 -1.98236679E-07  0.00000000E+00 -3.99554924E-09 -3.68070342E-03
  0.00000000E+00  0.00000000E+00 -2.51161672E-09  1.49861548E-03 -8.57056298E-02
 -1.23185532E-01 -4.59297034E-02  1.49980656E-02  8.89904271E-03  0.00000000E+00
 -1.20261284E-03 -5.06241186E-03  0.00000000E+00 -8.57052916E-02 -1.23184608E-01
 -4.59290383E-02 -1.49980370E-02  8.89921535E-03  0.00000000E+00  1.20271725E-03
 -5.06256402E-03  0.00000000E+00  0.00000000E+00  0.00000000E+00  0.00000000E+00
  0.00000000E+00  0.00000000E+00  0.00000000E+00  0.00000000E+00  0.00000000E+00
  4.70475471E-01  0.00000000E+00  0.00000000E+00  3.98418735E-01  0.00000000E+00
  0.00000000E+00  3.01470058E-01  0.00000000E+00  0.00000000E+00  4.03857567E-02
  0.00000000E+00 -4.47910093E-08 -5.26269010E-03  0.00000000E+00  0.00000000E+00
  0.00000000E+00 -1.02894472E-07 -2.13690847E-02  0.00000000E+00  0.00000000E+00
  0.00000000E+00 -1.12222163E-07 -2.66090698E-02  0.00000000E+00  0.00000000E+00
 -5.38895876E-03  0.00000000E+00  0.00000000E+00  1.54181671E-03  4.86848328E-09
  0.00000000E+00  0.00000000E+00  0.00000000E+00  0.00000000E+00  0.00000000E+00
  0.00000000E+00  0.00000000E+00  2.50927913E-02  0.00000000E+00  0.00000000E+00
  3.81124846E-03  0.00000000E+00  0.00000000E+00  0.00000000E+00  0.00000000E+00
  0.00000000E+00  2.50929000E-02  0.00000000E+00  0.00000000E+00  3.81111567E-03
  2.41201396E-02  5.59948660E-02 -5.49439155E-02 -3.78932549E-01  7.43471364E-01
  3.27544136E+00 -1.01149216E-06  1.09129380E-01  0.00000000E+00 -5.95703508E-07
  1.54463961E-01  0.00000000E+00 -1.85443487E-06 -2.63393201E-01  0.00000000E+00
 -2.02260760E-07 -5.79587523E-01  0.00000000E+00  2.09529242E-05  0.00000000E+00
  0.00000000E+00  1.87768948E-03 -3.66609335E-08  2.26593263E-03  0.00000000E+00
  0.00000000E+00  2.03847083E-03 -1.59247916E-07 -8.05453060E-02  0.00000000E+00
  0.00000000E+00  6.01284469E-02 -7.90062725E-07  0.00000000E+00 -2.31712081E-08
 -7.12951369E-04  0.00000000E+00  0.00000000E+00 -2.52047691E-08  5.51159479E-04
  1.52589461E-02  5.52735730E-02 -1.55514405E+00  1.77006821E-02 -8.41131125E-03
  0.00000000E+00  4.26468737E-01 -4.01404569E-01  0.00000000E+00  1.52583988E-02
  5.52720613E-02 -1.55515092E+00 -1.77003648E-02 -8.41074313E-03  0.00000000E+00
 -4.26468839E-01 -4.01399744E-01  0.00000000E+00 -1.96845191E-08 -2.72402496E-08
 -3.00935982E-07  1.96463978E-06 -9.08062644E-06 -2.03066471E-05 -1.11793329E-01
  4.36304452E-07  0.00000000E+00 -1.64332281E-01  4.52802854E-07  0.00000000E+00
  5.79271148E-01  2.64112150E-07  0.00000000E+00  1.59133958E+00 -1.23353254E-06
  0.00000000E+00 -1.57338854E-08  0.00000000E+00  0.00000000E+00  2.25939626E-08
  8.69237759E-04 -5.30995622E-08  0.00000000E+00  0.00000000E+00  3.75184103E-08
 -1.33292173E-03  3.88474772E-07  0.00000000E+00  0.00000000E+00 -1.54137079E-06
 -2.27571409E-01  0.00000000E+00  8.41487643E-05  1.58364984E-08  0.00000000E+00
  0.00000000E+00 -1.02664029E-03 -2.34570344E-08 -1.92056640E-03 -6.05705198E-02
 -2.19062399E+00  1.19357987E-02 -1.19971113E-02  0.00000000E+00  4.63077420E-01
 -4.84396890E-01  0.00000000E+00  1.92093030E-03  6.05721996E-02  2.19064996E+00
  1.19356194E-02  1.19969752E-02  0.00000000E+00  4.63080863E-01  4.84396000E-01
  0.00000000E+00  0.00000000E+00  0.00000000E+00  0.00000000E+00  0.00000000E+00
  0.00000000E+00  0.00000000E+00  0.00000000E+00  0.00000000E+00 -1.17844833E-01
  0.00000000E+00  0.00000000E+00 -9.04169309E-02  0.00000000E+00  0.00000000E+00
 -6.02975173E-02  0.00000000E+00  0.00000000E+00  1.66004703E+00  0.00000000E+00
 -8.26128810E-09 -1.94322241E-03  0.00000000E+00  0.00000000E+00  0.00000000E+00
  1.74531842E-07  2.31294752E-02  0.00000000E+00  0.00000000E+00  0.00000000E+00
 -1.70845127E-06 -1.96711189E-01  0.00000000E+00  0.00000000E+00  1.57160051E-03
  0.00000000E+00  0.00000000E+00 -5.29645488E-04 -1.09156132E-09  0.00000000E+00
  0.00000000E+00  0.00000000E+00  0.00000000E+00  0.00000000E+00  0.00000000E+00
  0.00000000E+00  1.55364666E-03  0.00000000E+00  0.00000000E+00 -4.43238169E-01
  0.00000000E+00  0.00000000E+00  0.00000000E+00  0.00000000E+00  0.00000000E+00
  1.55354056E-03  0.00000000E+00  0.00000000E+00 -4.43244350E-01  1.55205858E-02
  3.83273233E-02 -7.47671299E-02 -8.70404247E-02  1.51270232E-01 -2.23358067E-01
 -4.63624364E-07 -5.85464995E-02  0.00000000E+00 -6.17975206E-07 -5.85724932E-02
  0.00000000E+00 -2.12563331E-06 -8.61185033E-02  0.00000000E+00  2.58091842E-06
  1.74236480E+00  0.00000000E+00  2.01168933E-03  0.00000000E+00  0.00000000E+00
  1.64275002E-03 -1.50687871E-08 -2.90289298E-02  0.00000000E+00  0.00000000E+00
 -7.56725218E-03  2.03526537E-07  1.04034990E-01  0.00000000E+00  0.00000000E+00
  1.65522969E-01 -1.49287225E-06  0.00000000E+00  1.18341049E-08  1.74730417E-03
  0.00000000E+00  0.00000000E+00 -1.98270795E-08 -2.60166953E-03  2.47566931E-02
 -6.75756074E-02  5.00995869E-01  1.49215906E-02 -8.94594620E-03  0.00000000E+00
  1.22849892E-01 -4.50705671E-01  0.00000000E+00  2.47562837E-02 -6.75767620E-02
  5.00984122E-01 -1.49218425E-02 -8.94601700E-03  0.00000000E+00 -1.22854961E-01
 -4.50711242E-01  0.00000000E+00 -1.67224501E-07 -4.38913271E-07  1.31999537E-06
 -2.03298520E-06  1.80597936E-05  7.14078552E-05  1.42936559E-01 -2.38295964E-06
  0.00000000E+00  1.16717040E-01 -1.26357023E-06  0.00000000E+00  1.46628256E-01
 -7.28383969E-06  0.00000000E+00  1.42714210E+00 -1.06842829E-05  0.00000000E+00
  3.60500453E-08  0.00000000E+00  0.00000000E+00 -2.61151604E-08  1.83847823E-03
  3.04615286E-07  0.00000000E+00  0.00000000E+00 -1.51039934E-07  5.00616384E-02
 -6.17985395E-07  0.00000000E+00  0.00000000E+00  1.02056948E-06 -2.60141789E-01
  0.00000000E+00  1.02805125E-03 -2.45161418E-08  0.00000000E+00  0.00000000E+00
  1.89010479E-03  2.38491707E-08 -4.85678078E-02 -1.57372686E-01 -2.14262788E-01
 -2.09781267E-02  3.34426502E-02  0.00000000E+00 -9.70094321E-01  7.12622362E-01
  0.00000000E+00  4.85654142E-02  1.57369181E-01  2.14171337E-01 -2.09774358E-02
 -3.34423826E-02  0.00000000E+00 -9.70103091E-01 -7.12634166E-01  0.00000000E+00
 -1.07285375E-02 -2.75048499E-02  7.42965366E-02 -7.10434373E-02  6.08842881E-01
  3.77981496E+00 -8.04651108E-07 -5.96142213E-02  0.00000000E+00 -2.33724333E-07
 -2.30011022E-02  0.00000000E+00  1.81423288E-06 -1.05340664E-01  0.00000000E+00
 -1.07847921E-05  1.38942069E-01  0.00000000E+00  1.06204927E-03  0.00000000E+00
  0.00000000E+00 -8.18366270E-04  1.38314472E-09  2.87387596E-02  0.00000000E+00
  0.00000000E+00 -4.83854222E-02 -4.41324159E-07 -1.13276456E-01  0.00000000E+00
  0.00000000E+00  4.28766258E-01 -5.41993194E-07  0.00000000E+00 -3.11300423E-08
 -2.07957851E-03  0.00000000E+00  0.00000000E+00 -7.88865192E-09  2.80955718E-03
 -4.85307209E-02 -4.75615255E-02 -2.45007750E+00 -4.57452058E-02 -3.98578803E-03
  0.00000000E+00 -6.36529664E-01 -8.72664216E-01  0.00000000E+00 -4.85307101E-02
 -4.75613530E-02 -2.45005423E+00  4.57459071E-02 -3.98511552E-03  0.00000000E+00
  6.36557694E-01 -8.72644643E-01  0.00000000E+00  0.00000000E+00  0.00000000E+00
  0.00000000E+00  0.00000000E+00  0.00000000E+00  0.00000000E+00  0.00000000E+00
  0.00000000E+00 -4.77749139E-07  0.00000000E+00  0.00000000E+00 -2.30899624E-07
  0.00000000E+00  0.00000000E+00 -1.47750032E-06  0.00000000E+00  0.00000000E+00
 -8.14642542E-06  0.00000000E+00 -4.99787658E-04 -3.84903498E-09  0.00000000E+00
  0.00000000E+00  0.00000000E+00  4.28756461E-02 -2.89179361E-07  0.00000000E+00
  0.00000000E+00  0.00000000E+00 -3.92962849E-01  1.97055851E-06  0.00000000E+00
  0.00000000E+00 -8.43675901E-10  0.00000000E+00  0.00000000E+00 -6.32876212E-09
  1.91331804E-04  0.00000000E+00  0.00000000E+00  0.00000000E+00  0.00000000E+00
  0.00000000E+00  0.00000000E+00  0.00000000E+00  1.98404225E-02  0.00000000E+00
  0.00000000E+00  1.59658306E+00  0.00000000E+00  0.00000000E+00  0.00000000E+00
  0.00000000E+00  0.00000000E+00 -1.98401886E-02  0.00000000E+00  0.00000000E+00
 -1.59656977E+00 -1.41829151E-02 -3.52755146E-02  7.74243563E-02 -2.24240969E-02
  9.77859526E-01  4.94412339E+00 -3.04636713E-07 -2.16967234E-01  0.00000000E+00
  7.20304323E-07 -5.99283394E-02  0.00000000E+00  2.34436548E-08 -1.15146864E+00
  0.00000000E+00 -1.48805392E-05 -1.60174556E+00  0.00000000E+00  2.77775791E-03
  0.00000000E+00  0.00000000E+00 -1.40985687E-03  6.10555030E-08  1.52457277E-02
  0.00000000E+00  0.00000000E+00 -5.24900130E-03 -5.39900614E-07 -3.99573309E-02
  0.00000000E+00  0.00000000E+00 -1.25977125E-01  3.29924464E-06  0.00000000E+00
 -3.50720125E-08  5.83662815E-04  0.00000000E+00  0.00000000E+00  2.83841227E-08
  1.08105355E-03 -4.68191374E-02 -1.11156286E-01 -3.21441419E+00 -1.58243288E-02
  3.45658382E-02  0.00000000E+00  6.14458098E-01  4.64052376E-01  0.00000000E+00
 -4.68181515E-02 -1.11154707E-01 -3.21439462E+00  1.58253691E-02  3.45663892E-02
  0.00000000E+00 -6.14423322E-01  4.64076390E-01  0.00000000E+00  0.00000000E+00
  0.00000000E+00  0.00000000E+00  0.00000000E+00  0.00000000E+00  0.00000000E+00
  0.00000000E+00  0.00000000E+00  1.40567999E-01  0.00000000E+00  0.00000000E+00
  8.60902525E-03  0.00000000E+00  0.00000000E+00  8.90865002E-01  0.00000000E+00
  0.00000000E+00  1.57616755E+00  0.00000000E+00 -1.09744531E-08  1.52835683E-03
  0.00000000E+00  0.00000000E+00  0.00000000E+00  2.84967894E-07  1.76031243E-02
  0.00000000E+00  0.00000000E+00  0.00000000E+00 -3.54469620E-06 -1.40470503E-01
  0.00000000E+00  0.00000000E+00 -1.72116467E-03  0.00000000E+00  0.00000000E+00
  1.56592061E-03  5.40229662E-09  0.00000000E+00  0.00000000E+00  0.00000000E+00
  0.00000000E+00  0.00000000E+00  0.00000000E+00  0.00000000E+00 -1.97933268E-02
  0.00000000E+00  0.00000000E+00 -1.48407793E+00  0.00000000E+00  0.00000000E+00
  0.00000000E+00  0.00000000E+00  0.00000000E+00 -1.97934601E-02  0.00000000E+00
  0.00000000E+00 -1.48410353E+00 -3.38809954E-02 -9.02602253E-02  2.58762942E-01
 -4.03004102E-01  4.03154249E+00  2.28850305E+00  4.61112162E-06 -5.42776815E-02
  0.00000000E+00  1.76117466E-06 -1.09676849E-01  0.00000000E+00  3.08500742E-05
 -4.28555999E-01  0.00000000E+00  1.52509577E-05  6.97253463E-01  0.00000000E+00
  5.47814822E-04  0.00000000E+00  0.00000000E+00 -2.20872796E-03  1.63870754E-07
 -3.53535064E-02  0.00000000E+00  0.00000000E+00  2.68325415E-03 -6.16701587E-07
 -8.06003083E-02  0.00000000E+00  0.00000000E+00  7.75636500E-02 -1.86334176E-06
  0.00000000E+00 -7.43374955E-08  3.99369822E-03  0.00000000E+00  0.00000000E+00
 -3.18150454E-08 -6.13373562E-03 -2.80728456E-02 -3.20702923E-01 -2.34420041E+00
  7.97227571E-03 -9.95245998E-03  0.00000000E+00  1.23797671E+00 -1.40333093E+00
  0.00000000E+00 -2.80708149E-02 -3.20692500E-01 -2.34404512E+00 -7.97252774E-03
 -9.95237580E-03  0.00000000E+00 -1.23794036E+00 -1.40327441E+00  0.00000000E+00
  5.82164115E-07  1.56815972E-06 -4.75495172E-06  7.83288503E-06 -7.50605703E-05
 -6.99236918E-05  2.35309070E-01  1.46058940E-07  0.00000000E+00  1.04115842E-01
  1.19336978E-06  0.00000000E+00  1.67751833E+00  1.78016761E-06  0.00000000E+00
  1.59286152E+00 -1.17413473E-05  0.00000000E+00  2.85125661E-08  0.00000000E+00
  0.00000000E+00  2.07888486E-08  3.68186080E-03  3.65707462E-07  0.00000000E+00
  0.00000000E+00 -2.01360536E-07 -3.99642543E-02  2.32433742E-06  0.00000000E+00
  0.00000000E+00 -3.61424237E-06 -8.08576535E-02  0.00000000E+00 -4.19609429E-03
 -3.64106136E-08  0.00000000E+00  0.00000000E+00 -7.88343738E-05  8.77545632E-08
 -2.23076896E-02 -2.65344669E-01 -3.67295074E+00 -1.29970217E-02 -8.65263894E-05
  0.00000000E+00  7.71593733E-02 -1.77092959E+00  0.00000000E+00  2.23080351E-02
  2.65353029E-01  3.67307621E+00 -1.29973441E-02  8.64634421E-05  0.00000000E+00
  7.72014828E-02  1.77097743E+00  0.00000000E+00  2.64008423E-07  7.25653839E-07
 -2.44652409E-06  5.24460121E-06 -4.69277553E-05 -4.73230326E-05  1.59705493E-01
  3.46436794E-07  0.00000000E+00  5.48025498E-02  1.77714373E-07  0.00000000E+00
  1.50344874E+00  3.89057997E-06  0.00000000E+00 -1.39648126E+00  8.89100923E-06
  0.00000000E+00  2.20376175E-08  0.00000000E+00  0.00000000E+00  4.72374442E-08
  7.56106185E-03  1.82520051E-07  0.00000000E+00  0.00000000E+00 -8.23877310E-08
  6.78402273E-03  4.07049383E-07  0.00000000E+00  0.00000000E+00  5.22680999E-07
 -1.71316494E-01  0.00000000E+00 -2.12656870E-03 -1.98305245E-08  0.00000000E+00
  0.00000000E+00  3.66775613E-03 -3.40427730E-10 -6.03862506E-02 -2.34240567E-01
 -7.60565877E+00 -8.38606405E-03  1.28269928E-02  0.00000000E+00  4.36149106E+00
 -3.33400496E-02  0.00000000E+00  6.03859468E-02  2.34242416E-01  7.60574521E+00
 -8.38648633E-03 -1.28274256E-02  0.00000000E+00  4.36151623E+00  3.33207559E-02
  0.00000000E+00 -2.65286003E-08 -3.20046860E-08 -5.37159731E-07  3.46142462E-06
 -3.70075880E-06 -5.10482726E-05  6.88432711E-02  1.63475025E-07  0.00000000E+00
  1.42953110E-01 -1.21388854E-06  0.00000000E+00 -1.20080242E+00  5.06474152E-06
  0.00000000E+00 -9.42946579E-01  1.45732494E-05  0.00000000E+00  1.86449946E-07
  0.00000000E+00  0.00000000E+00  8.32774220E-08  1.93853967E-02 -3.25061931E-07
  0.00000000E+00  0.00000000E+00  5.12311137E-07  5.27679628E-02  9.03230230E-06
  0.00000000E+00  0.00000000E+00  8.17816074E-06  1.67971392E+00  0.00000000E+00
  5.13699909E-03 -4.31346486E-08  0.00000000E+00  0.00000000E+00  3.41904496E-03
 -3.64882577E-08 -1.20835129E-01  9.33706277E-02  4.82054656E+00 -4.60923284E-03
  3.49667259E-02  0.00000000E+00 -1.08562644E+00 -7.12965692E-01  0.00000000E+00
  1.20833674E-01 -9.33835179E-02 -4.82047364E+00 -4.60993873E-03 -3.49672364E-02
  0.00000000E+00 -1.08561820E+00  7.12982109E-01  0.00000000E+00  1.37727034E-02
  3.19177835E-02 -2.68659306E-02 -2.67367014E-01  1.61036055E-01  3.52932805E+00
  9.82993204E-07 -3.88679681E-02  0.00000000E+00  8.46081393E-07 -2.61403077E-02
  0.00000000E+00 -7.63273587E-06 -3.75965306E-01  0.00000000E+00 -1.35484160E-05
 -1.35959804E+00  0.00000000E+00 -2.09139902E-02  0.00000000E+00  0.00000000E+00
  1.27651945E-03  1.73873061E-07 -4.99896539E-04  0.00000000E+00  0.00000000E+00
  5.81846712E-03  6.49149681E-07 -1.26380058E+00  0.00000000E+00  0.00000000E+00
  1.39145727E-01  1.46936034E-05  0.00000000E+00  5.64267355E-08  3.65886406E-03
  0.00000000E+00  0.00000000E+00  2.72861617E-08 -1.48654509E-03  7.66109375E-02
  5.35511284E-02 -2.40202248E+00  1.09578362E-02  4.84230406E-03  0.00000000E+00
 -4.04729091E-01  3.89017965E-01  0.00000000E+00  7.66132668E-02  5.35449542E-02
 -2.40204385E+00 -1.09581853E-02  4.84139721E-03  0.00000000E+00  4.04745002E-01
  3.89037556E-01  0.00000000E+00  0.00000000E+00  0.00000000E+00  0.00000000E+00
  0.00000000E+00  0.00000000E+00  0.00000000E+00  0.00000000E+00  0.00000000E+00
  1.19162971E-01  0.00000000E+00  0.00000000E+00  1.46319889E-01  0.00000000E+00
  0.00000000E+00  2.40787787E-01  0.00000000E+00  0.00000000E+00  1.31284737E+00
  0.00000000E+00 -9.85764146E-08 -2.15826534E-02  0.00000000E+00  0.00000000E+00
  0.00000000E+00  4.23878964E-08  9.83876597E-03  0.00000000E+00  0.00000000E+00
  0.00000000E+00 -5.75553499E-06 -1.29533324E+00  0.00000000E+00  0.00000000E+00
 -3.02439973E-03  0.00000000E+00  0.00000000E+00 -1.94515963E-03  2.94666097E-08
  0.00000000E+00  0.00000000E+00  0.00000000E+00  0.00000000E+00  0.00000000E+00
  0.00000000E+00  0.00000000E+00  4.99670908E-03  0.00000000E+00  0.00000000E+00
 -1.05346706E+00  0.00000000E+00  0.00000000E+00  0.00000000E+00  0.00000000E+00
  0.00000000E+00  4.99683202E-03  0.00000000E+00  0.00000000E+00 -1.05347383E+00
 -2.26505397E-03 -7.10380948E-03  4.34562773E-02 -1.09365091E-01  5.14433032E-01
  2.82051635E+00  5.53121691E-07  5.43232665E-02  0.00000000E+00  9.56779706E-07
  9.96616941E-02  0.00000000E+00  4.65847286E-06  3.60267630E-01  0.00000000E+00
  1.02216945E-07  6.53276675E-01  0.00000000E+00 -3.67171758E-03  0.00000000E+00
  0.00000000E+00  2.55585423E-02 -1.30647578E-07  1.03949107E-02  0.00000000E+00
  0.00000000E+00  4.51667922E-03 -1.17050514E-07  1.20096913E-02  0.00000000E+00
  0.00000000E+00  1.75266086E+00 -8.93582739E-06  0.00000000E+00 -1.98214802E-08
 -2.51104751E-03  0.00000000E+00  0.00000000E+00 -3.33343046E-08 -1.19924172E-03
  5.56789387E-02  4.14422559E-01 -2.11022166E+00  2.97835125E-03  3.20227980E-02
  0.00000000E+00 -6.04412861E-01 -1.25432747E+00  0.00000000E+00  5.56792479E-02
  4.14420843E-01 -2.11017175E+00 -2.97795796E-03  3.20227668E-02  0.00000000E+00
  6.04432843E-01 -1.25432700E+00  0.00000000E+00  0.00000000E+00  0.00000000E+00
  0.00000000E+00  0.00000000E+00  0.00000000E+00  0.00000000E+00  0.00000000E+00
  0.00000000E+00 -6.21905977E-07  0.00000000E+00  0.00000000E+00 -1.28873143E-06
  0.00000000E+00  0.00000000E+00  1.79171479E-06  0.00000000E+00  0.00000000E+00
  6.27276542E-08  0.00000000E+00  2.42074047E-02 -9.60889178E-08  0.00000000E+00
  0.00000000E+00  0.00000000E+00 -4.04344714E-03 -1.02216296E-08  0.00000000E+00
  0.00000000E+00  0.00000000E+00  1.79096688E+00 -8.02471108E-06  0.00000000E+00
  0.00000000E+00  4.25128959E-09  0.00000000E+00  0.00000000E+00 -2.83775156E-08
 -2.03415695E-03  0.00000000E+00  0.00000000E+00  0.00000000E+00  0.00000000E+00
  0.00000000E+00  0.00000000E+00  0.00000000E+00  2.49642673E-02  0.00000000E+00
  0.00000000E+00 -1.64030407E+00  0.00000000E+00  0.00000000E+00  0.00000000E+00
  0.00000000E+00  0.00000000E+00 -2.49642503E-02  0.00000000E+00  0.00000000E+00
  1.64030174E+00  3.12099317E-02  6.63540136E-02  8.27631960E-02 -1.10194699E+00
  3.97112836E-01  9.95834850E-01 -3.41742561E-06  5.79515172E-02  0.00000000E+00
 -6.71490835E-06  2.70676399E-01  0.00000000E+00 -1.94818723E-06  1.43458174E+00
  0.00000000E+00 -2.67084750E-06 -1.97289167E-01  0.00000000E+00 -1.06738826E-02
  0.00000000E+00  0.00000000E+00  2.49620573E-03 -2.03383313E-07  7.97444032E-02
  0.00000000E+00  0.00000000E+00 -1.97834485E-02  1.03210059E-06  1.01038486E+00
  0.00000000E+00  0.00000000E+00 -6.06151126E-01  4.00883100E-05  0.00000000E+00
  9.07409666E-08 -8.77091213E-03  0.00000000E+00  0.00000000E+00  1.54833479E-07
  1.54910776E-02  8.45855814E-02  2.26349746E+00 -1.55320906E+00 -8.40938699E-02
  6.20400011E-02  0.00000000E+00  7.13893127E-01 -4.86283949E-01  0.00000000E+00
  8.45837251E-02  2.26342717E+00 -1.55309583E+00  8.40935575E-02  6.20392800E-02
  0.00000000E+00 -7.13848474E-01 -4.86240951E-01  0.00000000E+00  0.00000000E+00
  0.00000000E+00  0.00000000E+00  0.00000000E+00  0.00000000E+00  0.00000000E+00
  0.00000000E+00  0.00000000E+00 -3.01073807E-01  0.00000000E+00  0.00000000E+00
 -8.12735266E-01  0.00000000E+00  0.00000000E+00  2.52649488E+00  0.00000000E+00
  0.00000000E+00  6.94679687E-01  0.00000000E+00 -4.34889029E-08 -1.77623774E-03
  0.00000000E+00  0.00000000E+00  0.00000000E+00 -2.32983766E-07 -2.65268190E-02
  0.00000000E+00  0.00000000E+00  0.00000000E+00 -8.70718578E-06 -7.87758933E-01
  0.00000000E+00  0.00000000E+00  6.62036973E-04  0.00000000E+00  0.00000000E+00
 -1.99013595E-03  2.24920820E-08  0.00000000E+00  0.00000000E+00  0.00000000E+00
  0.00000000E+00  0.00000000E+00  0.00000000E+00  0.00000000E+00  2.81846374E-03
  0.00000000E+00  0.00000000E+00 -1.28313842E+00  0.00000000E+00  0.00000000E+00
  0.00000000E+00  0.00000000E+00  0.00000000E+00  2.81845458E-03  0.00000000E+00
  0.00000000E+00 -1.28315678E+00 -7.71603242E-03 -1.65473470E-02 -3.01685608E-03
  1.25966425E-01  7.56142694E-01  4.40153758E+00 -6.20987991E-04  3.29200038E-01
  0.00000000E+00 -2.31016031E-03  8.05557530E-01  0.00000000E+00 -4.17004601E-03
 -2.83434037E+00  0.00000000E+00 -8.64168201E-04 -9.26042453E-01  0.00000000E+00
  1.33472725E-03  0.00000000E+00  0.00000000E+00  1.68958279E-03 -6.60562585E-05
 -5.25731804E-02  0.00000000E+00  0.00000000E+00 -6.82711020E-03  5.63107195E-04
 -4.25269555E-01  0.00000000E+00  0.00000000E+00 -4.43805603E-01  6.58193612E-03
  0.00000000E+00  4.71842662E-05  2.30040047E-03  0.00000000E+00  0.00000000E+00
  1.89397364E-05 -2.58792440E-03  6.06958325E-02 -4.41818506E-02 -3.04217143E+00
  2.50624730E-02 -2.29962511E-02  0.00000000E+00  4.72418744E-01  5.21789329E-01
  0.00000000E+00  6.01382431E-02 -6.08632725E-02 -3.02536057E+00 -2.57746321E-02
 -2.34497947E-02  0.00000000E+00 -4.63866027E-01  5.27505159E-01  0.00000000E+00
  2.36280377E-05  5.07093006E-05  6.17968512E-06 -3.64709531E-04 -2.36464712E-03
 -1.38669798E-02 -1.97841673E-01 -1.03690071E-03  0.00000000E+00 -7.35366044E-01
 -2.54465546E-03  0.00000000E+00 -1.31868028E+00  8.88319318E-03  0.00000000E+00
 -2.73020637E-01  2.91652079E-03  0.00000000E+00 -3.88934919E-06  0.00000000E+00
  0.00000000E+00 -5.54249282E-06 -2.09792740E-02  1.62277523E-04  0.00000000E+00
  0.00000000E+00  2.35880244E-05  1.78834015E-01  1.31656854E-03  0.00000000E+00
  0.00000000E+00  1.42065631E-03  2.08855702E+00  0.00000000E+00  1.50006847E-02
 -6.96979421E-06  0.00000000E+00  0.00000000E+00  6.02820174E-03  7.50981391E-06
  8.84304734E-02  2.64917206E+00 -2.66711117E+00 -1.13182922E-01  7.21840374E-02
  0.00000000E+00  1.35710912E+00 -9.08103633E-01  0.00000000E+00 -8.88151541E-02
 -2.64896125E+00  2.68625656E+00 -1.13030209E-01 -7.20423791E-02  0.00000000E+00
  1.36008744E+00  9.04812938E-01  0.00000000E+00 -3.27360470E-08 -6.50845910E-08
  1.41484999E-07 -1.04180161E-06 -2.76093307E-05 -1.05580889E-05 -2.79030741E-01
  1.55649584E-06  0.00000000E+00 -6.26272628E-01  6.00350214E-06  0.00000000E+00
  6.31064745E+00 -2.24616509E-05  0.00000000E+00  1.08918356E+00 -2.85435054E-06
  0.00000000E+00 -1.72799252E-08  0.00000000E+00  0.00000000E+00  2.15050573E-07
  2.93466873E-02  3.01515286E-07  0.00000000E+00  0.00000000E+00 -9.83857745E-07
 -1.43121399E-01 -2.42143137E-06  0.00000000E+00  0.00000000E+00 -8.94205809E-06
 -1.68107066E+00  0.00000000E+00 -9.38184834E-03  4.45399376E-08  0.00000000E+00
  0.00000000E+00 -5.43008343E-03  2.64647295E-09  1.64521189E-04 -1.80738617E+00
 -8.36793606E+00  1.11485939E-01 -4.84740702E-02  0.00000000E+00  1.58978975E+00
 -1.14220811E+00  0.00000000E+00 -1.63567166E-04  1.80739036E+00  8.36796640E+00
  1.11486411E-01  4.84738115E-02  0.00000000E+00  1.58979290E+00  1.14219650E+00
  0.00000000E+00  5.31685372E-02  1.09765072E-01  1.73098088E-01 -3.38768083E+00
  1.05578430E+01  4.00916294E+00  4.08096441E-08  5.17930382E-02  0.00000000E+00
 -2.37432422E-06 -3.42451080E-02  0.00000000E+00 -1.75089384E-05 -2.52566234E+00
  0.00000000E+00 -2.47963934E-06  1.53823773E-02  0.00000000E+00  1.81115064E-02
  0.00000000E+00  0.00000000E+00 -3.92811700E-03 -1.74089381E-08 -4.59838011E-02
  0.00000000E+00  0.00000000E+00  3.79802539E-02 -9.25110348E-08 -5.52402680E-01
  0.00000000E+00  0.00000000E+00  6.18335163E-01 -4.65910205E-06  0.00000000E+00
 -2.03767286E-08  5.14886954E-03  0.00000000E+00  0.00000000E+00 -1.14904421E-07
 -1.09227642E-02  8.12951516E-03 -1.69027582E+00 -4.64792543E+00  6.89585203E-02
 -4.95072453E-02  0.00000000E+00  1.00577605E+00 -1.22049446E+00  0.00000000E+00
  8.12891453E-03 -1.69028355E+00 -4.64799135E+00 -6.89593603E-02 -4.95069176E-02
  0.00000000E+00 -1.00579339E+00 -1.22049750E+00  0.00000000E+00  0.00000000E+00
  0.00000000E+00  0.00000000E+00  0.00000000E+00  0.00000000E+00  0.00000000E+00
  0.00000000E+00  0.00000000E+00  5.22302599E-07  0.00000000E+00  0.00000000E+00
 -1.93903526E-06  0.00000000E+00  0.00000000E+00  3.53482448E-06  0.00000000E+00
  0.00000000E+00  2.31955019E-07  0.00000000E+00 -1.94045968E-02  7.84154324E-08
  0.00000000E+00  0.00000000E+00  0.00000000E+00 -5.54025517E-01  5.95753200E-06
  0.00000000E+00  0.00000000E+00  0.00000000E+00  9.31120959E-01 -7.19227045E-06
  0.00000000E+00  0.00000000E+00  2.39405217E-07  0.00000000E+00  0.00000000E+00
 -1.29309372E-08 -1.76576623E-03  0.00000000E+00  0.00000000E+00  0.00000000E+00
  0.00000000E+00  0.00000000E+00  0.00000000E+00  0.00000000E+00 -5.31168763E-01
  0.00000000E+00  0.00000000E+00 -5.03917268E-01  0.00000000E+00  0.00000000E+00
  0.00000000E+00  0.00000000E+00  0.00000000E+00  5.31161476E-01  0.00000000E+00
  0.00000000E+00  5.03915436E-01  2.78390538E-04 -4.16138001E-04  3.50120887E-02
 -1.22403139E-01 -3.41382860E-01  5.94940287E-01 -4.11140230E-08  2.80058998E-02
  0.00000000E+00  1.84012564E-06  5.69585004E-02  0.00000000E+00  1.23472601E-05
  1.12419878E+00  0.00000000E+00  9.42075069E-07  4.28567753E-01  0.00000000E+00
 -1.16916626E-03  0.00000000E+00  0.00000000E+00 -2.09079858E-02  1.79137933E-07
 -9.33226747E-02  0.00000000E+00  0.00000000E+00 -7.12443738E-01  3.40908829E-06
  2.07379149E-01  0.00000000E+00  0.00000000E+00  1.23125965E+00 -1.12677501E-05
  0.00000000E+00 -3.37683671E-08  1.86776613E-03  0.00000000E+00  0.00000000E+00
 -1.56179006E-07  1.63678695E-02 -7.14763144E-02  7.02529796E-01 -5.23476049E-01
 -2.97666559E-01 -3.37534412E-01  0.00000000E+00 -3.69721331E-01 -6.91207572E-01
  0.00000000E+00 -7.14754108E-02  7.02541061E-01 -5.23438326E-01  2.97666352E-01
 -3.37533152E-01  0.00000000E+00  3.69732250E-01 -6.91212698E-01  0.00000000E+00
  0.00000000E+00  0.00000000E+00  0.00000000E+00  0.00000000E+00  0.00000000E+00
  0.00000000E+00  0.00000000E+00  0.00000000E+00  4.81937331E-02  0.00000000E+00
  0.00000000E+00 -1.37409181E-02  0.00000000E+00  0.00000000E+00  7.89002573E-01
  0.00000000E+00  0.00000000E+00  3.84184752E-01  0.00000000E+00  2.44774570E-07
  1.35811912E-02  0.00000000E+00  0.00000000E+00  0.00000000E+00  5.80709471E-06
  7.23552927E-01  0.00000000E+00  0.00000000E+00  0.00000000E+00 -9.26474291E-06
 -7.78875838E-01  0.00000000E+00  0.00000000E+00  2.79916370E-03  0.00000000E+00
  0.00000000E+00  1.07978628E-02  1.67443382E-07  0.00000000E+00  0.00000000E+00
  0.00000000E+00  0.00000000E+00  0.00000000E+00  0.00000000E+00  0.00000000E+00
 -4.70982064E-01  0.00000000E+00  0.00000000E+00 -4.75672160E-01  0.00000000E+00
  0.00000000E+00  0.00000000E+00  0.00000000E+00  0.00000000E+00 -4.70988029E-01
  0.00000000E+00  0.00000000E+00 -4.75683653E-01  2.54677298E-08 -3.09632865E-08
  4.35398847E-06 -2.10147837E-05 -3.61486049E-05 -2.27256509E-05 -1.73653872E-01
  2.40652827E-07  0.00000000E+00  6.87549336E-01  9.19747954E-06  0.00000000E+00
  2.80803196E+00  6.78416326E-06  0.00000000E+00 -2.28961763E-01  5.31146178E-06
  0.00000000E+00 -7.61561291E-08  0.00000000E+00  0.00000000E+00  1.25283542E-07
  8.70738238E-03 -3.09315257E-06  0.00000000E+00  0.00000000E+00 -9.76790396E-06
 -1.26707401E+00  6.90899767E-06  0.00000000E+00  0.00000000E+00 -5.02724176E-06
 -7.08957968E-01  0.00000000E+00 -3.31637571E-02 -2.19600907E-07  0.00000000E+00
  0.00000000E+00 -3.08646851E-02  1.26654159E-06  3.22276952E-01 -2.99197073E+00
 -7.99333240E-01  5.00261961E-02 -3.37767429E-01  0.00000000E+00  3.33510983E-01
 -2.30636256E-01  0.00000000E+00 -3.22273125E-01  2.99201523E+00  7.99373030E-01
  5.00421781E-02  3.37777028E-01  0.00000000E+00  3.33513259E-01  2.30633503E-01
  0.00000000E+00  1.75020928E-02  5.57349761E-02 -3.51170042E-01  3.99903894E-01
  2.18572086E+00 -1.63885663E+00  2.53767068E-06  3.93230045E-02  0.00000000E+00
 -2.12552632E-05 -4.07790572E-01  0.00000000E+00 -3.25450245E-05 -6.99594162E-01
  0.00000000E+00  1.01756113E-06  5.58655042E-01  0.00000000E+00  4.26628082E-04
  0.00000000E+00  0.00000000E+00 -5.23584554E-04 -2.17732278E-07 -1.16323292E+00
  0.00000000E+00  0.00000000E+00  1.91248090E-01  1.60148259E-05  2.52581872E-01
  0.00000000E+00  0.00000000E+00  1.21738617E-02  9.72800989E-06  0.00000000E+00
  1.01325576E-06  3.13968428E-02  0.00000000E+00  0.00000000E+00  2.99517168E-07
 -3.99184927E-02  2.85457310E-01 -1.97714867E+00  1.13469002E+00  1.39359025E-01
 -1.00850523E-01  0.00000000E+00  1.93893378E-01 -1.28785995E-01  0.00000000E+00
  2.85461090E-01 -1.97723839E+00  1.13468357E+00 -1.39378311E-01 -1.00857653E-01
  0.00000000E+00 -1.93893539E-01 -1.28791514E-01  0.00000000E+00 -7.51156015E-08
 -1.94737013E-07 -4.98066089E-07  9.07695549E-06 -1.67762886E-05  2.83274077E-06
  1.12183465E-01  6.70428837E-08  0.00000000E+00 -3.33484719E-01 -4.31616553E-06
  0.00000000E+00  1.17257233E+00  1.72122769E-06  0.00000000E+00 -5.26248444E-02
 -2.37013084E-06  0.00000000E+00 -1.03079693E-09  0.00000000E+00  0.00000000E+00
  1.01163851E-07 -1.06540384E-02  6.29271796E-06  0.00000000E+00  0.00000000E+00
  3.69323485E-06  4.88027712E-01 -3.23856699E-06  0.00000000E+00  0.00000000E+00
 -3.47057319E-07 -3.27440409E-01  0.00000000E+00  2.09564702E-02  1.05702101E-07
  0.00000000E+00  0.00000000E+00  1.96671085E-02 -2.05839131E-07 -1.12585988E-01
  3.44941721E-01 -2.94843202E+00 -5.89603789E-01 -5.46440298E-01  0.00000000E+00
  1.07308481E+00  4.25938830E-02  0.00000000E+00  1.12583182E-01 -3.44936559E-01
  2.94843416E+00 -5.89602843E-01  5.46438603E-01  0.00000000E+00  1.07308860E+00
 -4.26007615E-02  0.00000000E+00  0.00000000E+00  0.00000000E+00  0.00000000E+00
  0.00000000E+00  0.00000000E+00  0.00000000E+00  0.00000000E+00  0.00000000E+00
 -2.45287921E-01  0.00000000E+00  0.00000000E+00  8.94842696E-02  0.00000000E+00
  0.00000000E+00 -4.76427168E-01  0.00000000E+00  0.00000000E+00  2.60995584E-01
  0.00000000E+00 -4.24365350E-08 -6.41329354E-03  0.00000000E+00  0.00000000E+00
  0.00000000E+00 -2.33241137E-05  9.43353045E-01  0.00000000E+00  0.00000000E+00
  0.00000000E+00  9.79602353E-06 -1.22848837E-01  0.00000000E+00  0.00000000E+00
 -3.83136872E-03  0.00000000E+00  0.00000000E+00  1.56094783E-02 -5.30460870E-07
  0.00000000E+00  0.00000000E+00  0.00000000E+00  0.00000000E+00  0.00000000E+00
  0.00000000E+00  0.00000000E+00  7.56349018E-01  0.00000000E+00  0.00000000E+00
 -1.10247547E-01  0.00000000E+00  0.00000000E+00  0.00000000E+00  0.00000000E+00
  0.00000000E+00  7.56319270E-01  0.00000000E+00  0.00000000E+00 -1.10225539E-01
  0.00000000E+00  0.00000000E+00  0.00000000E+00  0.00000000E+00  0.00000000E+00
  0.00000000E+00  0.00000000E+00  0.00000000E+00 -7.48804780E-06  0.00000000E+00
  0.00000000E+00  8.64006603E-07  0.00000000E+00  0.00000000E+00 -1.24779368E-05
  0.00000000E+00  0.00000000E+00  5.83310482E-06  0.00000000E+00 -5.97714888E-03
 -2.45441621E-07  0.00000000E+00  0.00000000E+00  0.00000000E+00  1.16469124E+00
  1.99989594E-05  0.00000000E+00  0.00000000E+00  0.00000000E+00 -3.54770437E-01
 -8.49169247E-07  0.00000000E+00  0.00000000E+00  2.05098951E-07  0.00000000E+00
  0.00000000E+00  2.30136705E-07  1.93043259E-03  0.00000000E+00  0.00000000E+00
  0.00000000E+00  0.00000000E+00  0.00000000E+00  0.00000000E+00  0.00000000E+00
 -7.19157097E-01  0.00000000E+00  0.00000000E+00  3.93009289E-01  0.00000000E+00
  0.00000000E+00  0.00000000E+00  0.00000000E+00  0.00000000E+00  7.19197207E-01
  0.00000000E+00  0.00000000E+00 -3.93013057E-01  1.71288548E-02  7.16814627E-02
 -8.81591257E-01  2.73926529E+00 -3.20981782E-01 -2.16163674E+00  3.16467666E-06
  4.17642146E-01  0.00000000E+00 -3.87084971E-05 -1.45449790E+00  0.00000000E+00
 -1.06253963E-05  2.50080567E-01  0.00000000E+00 -1.81755630E-07  3.11300107E-01
  0.00000000E+00  1.27611440E-02  0.00000000E+00  0.00000000E+00 -8.40469068E-03
  1.03894970E-07  3.80849762E-02  0.00000000E+00  0.00000000E+00  5.43701180E-01
  2.68332846E-06 -3.34944308E-01  0.00000000E+00  0.00000000E+00  2.62402673E-01
  7.32900223E-06  0.00000000E+00  1.39267048E-06  7.16319465E-02  0.00000000E+00
  0.00000000E+00 -8.05571633E-07 -1.43367923E-01  6.90435321E-01 -2.67444229E+00
  2.11356355E+00  3.85064919E-01 -7.89476602E-01  0.00000000E+00 -3.63954252E-01
  1.76350489E-01  0.00000000E+00  6.90431393E-01 -2.67451616E+00  2.11358138E+00
 -3.85094949E-01 -7.89502871E-01  0.00000000E+00  3.63960712E-01  1.76353753E-01
  0.00000000E+00 -2.29973423E-02 -8.25348466E-02  7.12307393E-01 -1.59726170E+00
 -5.63342986E-01  6.70587182E-02 -1.50745289E-05  6.75570196E-02  0.00000000E+00
  9.75520037E-05  5.32117266E-01  0.00000000E+00  2.10508217E-05  1.20750227E+00
  0.00000000E+00 -4.59954089E-06 -4.51140792E-02  0.00000000E+00 -4.39345626E-03
  0.00000000E+00  0.00000000E+00 -2.08991298E-03  1.60139100E-06  4.54739816E-02
  0.00000000E+00  0.00000000E+00  1.03173550E+00 -2.78609997E-05  3.64000520E-01
  0.00000000E+00  0.00000000E+00  6.10694491E-02 -3.01298350E-05  0.00000000E+00
 -4.35526776E-06 -2.20475303E-02  0.00000000E+00  0.00000000E+00 -2.26763315E-06
  9.34803500E-02 -4.45205774E-01  1.78917464E+00 -3.52497320E-01 -8.53986956E-01
 -4.36662100E-01  0.00000000E+00  8.60283413E-02 -1.81731281E-01  0.00000000E+00
 -4.45238952E-01  1.78942651E+00 -3.52650495E-01  8.54060991E-01 -4.36607829E-01
  0.00000000E+00 -8.60724737E-02 -1.81763854E-01  0.00000000E+00 -8.82700709E-07
 -3.33288075E-06  2.73822914E-05 -4.06649159E-05 -1.61438081E-05  1.62755513E-05
  5.02066293E-01  1.49971788E-07  0.00000000E+00 -2.69403433E+00  2.01009352E-05
  0.00000000E+00 -3.68120514E-01  3.78529720E-05  0.00000000E+00  1.63162737E-01
 -5.40922127E-06  0.00000000E+00 -6.03724737E-07  0.00000000E+00  0.00000000E+00
 -1.59203469E-07 -5.19300711E-02  3.16561240E-07  0.00000000E+00  0.00000000E+00
  3.23023941E-05  4.58603905E-01  1.26269393E-05  0.00000000E+00  0.00000000E+00
  6.42936429E-06  8.71736437E-01  0.00000000E+00  1.26143346E-01 -1.56098577E-06
  0.00000000E+00  0.00000000E+00  7.70987224E-02  3.24699613E-06 -6.16446915E-01
  3.50320974E+00 -2.37912750E+00 -9.23569818E-01  8.57019023E-01  0.00000000E+00
  6.36329446E-01 -4.89593941E-01  0.00000000E+00  6.16393096E-01 -3.50307925E+00
  2.37907848E+00 -9.23526054E-01 -8.57038490E-01  0.00000000E+00  6.36324407E-01
  4.89575893E-01  0.00000000E+00 -1.45967369E-02 -2.77846699E-02 -3.44130801E-01
  1.62168026E+00  2.74433931E+00  1.40939477E+00  5.20835599E-05 -9.19063691E-01
  0.00000000E+00  1.78316126E-05  1.96971159E-01  0.00000000E+00  2.33902088E-04
 -1.93976332E+00  0.00000000E+00  1.95821181E-05 -1.47495366E-01  0.00000000E+00
  2.60143381E-02  0.00000000E+00  0.00000000E+00 -1.45859146E-02  3.37810520E-06
 -5.75575577E-01  0.00000000E+00  0.00000000E+00  4.79222170E-01 -9.16311658E-05
 -2.81018918E-01  0.00000000E+00  0.00000000E+00 -1.34799386E-02 -4.33866763E-05
  0.00000000E+00 -3.02780315E-06  5.12477432E-02  0.00000000E+00  0.00000000E+00
 -3.80580769E-06 -9.38970295E-02 -5.24953768E-02 -2.01748952E+00 -1.13013258E+00
  8.16617488E-01 -8.19815302E-01  0.00000000E+00  2.67712861E-01  3.30856596E-02
  0.00000000E+00 -5.24752591E-02 -2.01717701E+00 -1.12967807E+00 -8.16493851E-01
 -8.19712394E-01  0.00000000E+00 -2.67612685E-01  3.31679166E-02  0.00000000E+00
  4.01460204E-07  2.58737671E-07  2.84613528E-05 -1.24386586E-04 -1.36815054E-04
 -1.02855224E-04  8.72535411E-01  6.62773759E-05  0.00000000E+00  3.73786625E-01
 -3.38629440E-05  0.00000000E+00  3.60017912E+00  1.08599284E-04  0.00000000E+00
  2.99474146E-01  1.18677577E-05  0.00000000E+00 -1.32647596E-06  0.00000000E+00
  0.00000000E+00  9.46165449E-07  4.48247736E-02  2.93460377E-05  0.00000000E+00
  0.00000000E+00 -3.97369593E-05 -1.29051983E+00  1.58575047E-05  0.00000000E+00
  0.00000000E+00 -1.30776953E-06 -6.83014659E-01  0.00000000E+00 -5.35661723E-02
 -2.89179402E-06  0.00000000E+00  0.00000000E+00 -4.63748442E-02  5.60383226E-06
 -1.71048692E-01 -2.50236207E+00 -3.39636192E+00  1.00719478E+00 -7.82911844E-01
  0.00000000E+00  7.31834020E-01 -5.68503840E-01  0.00000000E+00  1.71065355E-01
  2.50257920E+00  3.39651941E+00  1.00728464E+00  7.83006896E-01  0.00000000E+00
  7.31865341E-01  5.68485854E-01  0.00000000E+00  0.00000000E+00  0.00000000E+00
  0.00000000E+00  0.00000000E+00  0.00000000E+00  0.00000000E+00  0.00000000E+00
  0.00000000E+00 -1.20618980E+00  0.00000000E+00  0.00000000E+00  1.93402476E+00
  0.00000000E+00  0.00000000E+00 -1.38810111E+00  0.00000000E+00  0.00000000E+00
 -1.93120156E-01  0.00000000E+00  2.45125053E-08 -2.37233449E-03  0.00000000E+00
  0.00000000E+00  0.00000000E+00 -3.52832464E-06 -2.49708305E-01  0.00000000E+00
  0.00000000E+00  0.00000000E+00  2.60494857E-06  2.53518366E-01  0.00000000E+00
  0.00000000E+00  1.23943967E-02  0.00000000E+00  0.00000000E+00 -8.41207153E-03
  5.59859803E-08  0.00000000E+00  0.00000000E+00  0.00000000E+00  0.00000000E+00
  0.00000000E+00  0.00000000E+00  0.00000000E+00 -2.56503099E-01  0.00000000E+00
  0.00000000E+00  4.78657595E-01  0.00000000E+00  0.00000000E+00  0.00000000E+00
  0.00000000E+00  0.00000000E+00 -2.56506654E-01  0.00000000E+00  0.00000000E+00
  4.78663486E-01 -1.07630391E-01 -3.56379441E-01  2.11513581E+00 -2.83790324E+00
  6.80605614E+00  5.02912102E-01 -9.55483103E-06  5.14063514E-01  0.00000000E+00
 -7.99007733E-06 -1.87573258E+00  0.00000000E+00 -4.12470772E-05 -8.17858225E-01
  0.00000000E+00 -3.44139357E-06  1.64023364E-01  0.00000000E+00  7.28452413E-03
  0.00000000E+00  0.00000000E+00 -1.52379659E-02 -4.15878629E-08 -6.69858630E-01
  0.00000000E+00  0.00000000E+00 -4.32683311E-03  1.04393951E-05 -1.43835046E-01
  0.00000000E+00  0.00000000E+00  1.85460153E-01  4.76964366E-06  0.00000000E+00
  5.90812644E-07  7.56543311E-03  0.00000000E+00  0.00000000E+00 -4.06324626E-08
 -4.70931343E-02 -1.21827999E-01 -2.08688233E+00 -1.31059109E+00  8.95791937E-01
 -3.50674836E-01  0.00000000E+00  4.57541647E-01 -5.88925402E-01  0.00000000E+00
 -1.21836277E-01 -2.08693433E+00 -1.31068758E+00 -8.95812660E-01 -3.50681324E-01
  0.00000000E+00 -4.57565914E-01 -5.88939087E-01  0.00000000E+00  7.19057933E-02
  2.79120336E-01 -2.87648536E+00  6.51143135E+00 -3.33709993E+00 -2.11848709E+00
 -1.30750322E-05  5.33377659E-01  0.00000000E+00  2.44752450E-05 -2.42843689E+00
  0.00000000E+00 -1.70567258E-05  7.65414174E-01  0.00000000E+00 -2.36516279E-06
  1.79155628E-01  0.00000000E+00  3.89908454E-02  0.00000000E+00  0.00000000E+00
 -2.63433931E-02 -3.34725414E-07 -8.51609526E-01  0.00000000E+00  0.00000000E+00
  2.62664654E-01 -1.42703427E-05  1.35470733E-01  0.00000000E+00  0.00000000E+00
 -2.26198179E-01  6.39003589E-06  0.00000000E+00  2.26737193E-06 -1.07990360E-01
  0.00000000E+00  0.00000000E+00  1.83466547E-06  1.55145111E-01 -6.68246729E-01
 -1.37154933E+00  2.27524368E+00  1.08797735E+00 -5.93940321E-01  0.00000000E+00
 -3.19719456E-01  3.82703249E-01  0.00000000E+00 -6.68237191E-01 -1.37154558E+00
  2.27520666E+00 -1.08796704E+00 -5.93919124E-01  0.00000000E+00  3.19713457E-01
  3.82695330E-01  0.00000000E+00 -3.94491103E-07 -1.85187914E-06  2.76663563E-05
 -8.94963425E-05  3.83406326E-05  3.22315334E-05 -7.59101064E-01 -3.75357745E-07
  0.00000000E+00  3.27848718E+00  2.42576637E-05  0.00000000E+00 -1.19524179E+00
 -5.66488501E-06  0.00000000E+00 -3.29031893E-01 -2.72188918E-06  0.00000000E+00
 -1.34975746E-06  0.00000000E+00  0.00000000E+00  9.71647238E-07  3.79544968E-02
  1.31656162E-05  0.00000000E+00  0.00000000E+00 -1.50157044E-05 -1.56448209E+00
 -2.19887088E-06  0.00000000E+00  0.00000000E+00  4.42411616E-06  3.22613980E-01
  0.00000000E+00  3.10070434E-01  1.02839886E-06  0.00000000E+00  0.00000000E+00
  1.08044845E-01 -4.39459358E-06 -9.55499376E-01 -1.11967893E+00  1.98205117E+00
  9.01815368E-01 -7.98743241E-01  0.00000000E+00 -2.86335632E-01  2.04996164E-01
  0.00000000E+00  9.55528417E-01  1.11972589E+00 -1.98211678E+00  9.01848103E-01
  7.98756746E-01  0.00000000E+00 -2.86341843E-01 -2.05000946E-01  0.00000000E+00
  0.00000000E+00  0.00000000E+00  0.00000000E+00  0.00000000E+00  0.00000000E+00
  0.00000000E+00  0.00000000E+00  0.00000000E+00 -4.99959389E-03  0.00000000E+00
  0.00000000E+00  1.41583375E-02  0.00000000E+00  0.00000000E+00  2.48423167E-03
  0.00000000E+00  0.00000000E+00 -5.84983125E-03  0.00000000E+00  3.14936300E-08
  9.97518408E-03  0.00000000E+00  0.00000000E+00  0.00000000E+00 -7.46040859E-08
 -3.58999590E-02  0.00000000E+00  0.00000000E+00  0.00000000E+00  5.16290980E-08
  4.59168867E-03  0.00000000E+00  0.00000000E+00  2.77050034E-01  0.00000000E+00
  0.00000000E+00  9.60774823E-01 -6.11825666E-06  0.00000000E+00  0.00000000E+00
  0.00000000E+00  0.00000000E+00  0.00000000E+00  0.00000000E+00  0.00000000E+00
 -2.16065611E-02  0.00000000E+00  0.00000000E+00  4.35074306E-03  0.00000000E+00
  0.00000000E+00  0.00000000E+00  0.00000000E+00  0.00000000E+00 -2.16064190E-02
  0.00000000E+00  0.00000000E+00  4.35075798E-03  9.87279157E-04  4.94165807E-03
 -9.37171066E-02  2.58544941E-01  2.00095246E-01 -6.86680193E-02  1.11272179E-07
  4.55322276E-02  0.00000000E+00 -2.86894631E-06 -2.28525033E-01  0.00000000E+00
 -5.74566142E-06 -2.70173682E-01  0.00000000E+00  9.08423729E-08 -6.00129086E-02
  0.00000000E+00 -2.18155028E-02  0.00000000E+00  0.00000000E+00 -1.09883975E-01
  3.14351280E-07 -4.42238795E-02  0.00000000E+00  0.00000000E+00 -7.37599476E-02
  2.18845149E-06 -5.24361389E-02  0.00000000E+00  0.00000000E+00 -1.77451731E-01
  2.56009765E-06  0.00000000E+00  5.86468603E-06  8.97804376E-01  0.00000000E+00
  0.00000000E+00 -1.53099481E-06  4.65532077E-01 -8.55487500E-03 -2.97045988E-01
  7.02055347E-02  2.24856671E-01  1.24588970E-01  0.00000000E+00  5.44951748E-02
  1.02419846E-01  0.00000000E+00 -8.55604530E-03 -2.97055332E-01  7.01950420E-02
 -2.24856555E-01  1.24586979E-01  0.00000000E+00 -5.44985770E-02  1.02420446E-01
  0.00000000E+00  0.00000000E+00  0.00000000E+00  0.00000000E+00  0.00000000E+00
  0.00000000E+00  0.00000000E+00  0.00000000E+00  0.00000000E+00  5.08709826E-02
  0.00000000E+00  0.00000000E+00 -1.39678015E-01  0.00000000E+00  0.00000000E+00
 -1.75863823E-01  0.00000000E+00  0.00000000E+00 -3.97662425E-02  0.00000000E+00
 -7.03685319E-06  1.22420345E-01  0.00000000E+00  0.00000000E+00  0.00000000E+00
 -2.38045070E-06  7.67068954E-02  0.00000000E+00  0.00000000E+00  0.00000000E+00
 -6.90648718E-06  1.16396459E-01  0.00000000E+00  0.00000000E+00  9.99453745E-01
  0.00000000E+00  0.00000000E+00 -2.94224531E-01  4.85326181E-05  0.00000000E+00
  0.00000000E+00  0.00000000E+00  0.00000000E+00  0.00000000E+00  0.00000000E+00
  0.00000000E+00  2.98250577E-01  0.00000000E+00  0.00000000E+00  6.52171744E-02
  0.00000000E+00  0.00000000E+00  0.00000000E+00  0.00000000E+00  0.00000000E+00
  2.98225864E-01  0.00000000E+00  0.00000000E+00  6.52112005E-02  0.00000000E+00
  0.00000000E+00  0.00000000E+00  0.00000000E+00  0.00000000E+00  0.00000000E+00
  0.00000000E+00  0.00000000E+00 -2.73798374E-06  0.00000000E+00  0.00000000E+00
  8.62490962E-06  0.00000000E+00  0.00000000E+00  8.57796961E-06  0.00000000E+00
  0.00000000E+00  2.17747476E-06  0.00000000E+00 -1.88477130E-01 -6.00954546E-06
  0.00000000E+00  0.00000000E+00  0.00000000E+00 -8.33522278E-02 -4.21640041E-06
  0.00000000E+00  0.00000000E+00  0.00000000E+00 -1.71078485E-01 -5.16421876E-06
  0.00000000E+00  0.00000000E+00 -4.53818886E-05  0.00000000E+00  0.00000000E+00
  2.00196354E-05  1.04520303E+00  0.00000000E+00  0.00000000E+00  0.00000000E+00
  0.00000000E+00  0.00000000E+00  0.00000000E+00  0.00000000E+00  3.07588711E-01
  0.00000000E+00  0.00000000E+00  7.73354324E-02  0.00000000E+00  0.00000000E+00
  0.00000000E+00  0.00000000E+00  0.00000000E+00 -3.07619443E-01  0.00000000E+00
  0.00000000E+00 -7.73422087E-02  6.56817983E-08  2.32513175E-07 -2.43214861E-06
  1.84404066E-06 -6.24912843E-07 -1.51286965E-06 -9.19544754E-02  1.67033508E-06
  0.00000000E+00  5.51085970E-01 -5.86839099E-06  0.00000000E+00  5.98021995E-01
 -4.14443893E-06  0.00000000E+00 -4.09153520E-02 -4.82088096E-07  0.00000000E+00
 -7.47630588E-07  0.00000000E+00  0.00000000E+00 -2.05655726E-06  2.55665914E-02
 -5.53924616E-07  0.00000000E+00  0.00000000E+00 -4.03817857E-06 -2.51141317E-01
 -7.51312531E-07  0.00000000E+00  0.00000000E+00 -3.04998101E-06 -1.84208115E-01
  0.00000000E+00 -5.40243790E-01  7.78890168E-06  0.00000000E+00  0.00000000E+00
  9.22902718E-01 -5.58424540E-06 -9.64528894E-02 -6.03460097E-01 -5.38784695E-01
 -1.34085387E-02 -4.02596415E-01  0.00000000E+00  2.12472983E-01  1.63546701E-03
  0.00000000E+00  9.64536388E-02  6.03455820E-01  5.38788549E-01 -1.34139015E-02
  4.02601106E-01  0.00000000E+00  2.12471829E-01 -1.63491148E-03  0.00000000E+00
  6.46578302E-07  2.24276132E-06 -2.90372662E-05  5.53163060E-05  1.44120679E-05
  1.12250647E-05 -3.09249240E-01  7.92109012E-06  0.00000000E+00  1.84655179E+00
 -3.65696349E-05  0.00000000E+00 -1.21371335E-01 -5.42819047E-06  0.00000000E+00
  3.25175279E-02 -1.34176575E-06  0.00000000E+00 -2.10434061E-05  0.00000000E+00
  0.00000000E+00  6.51497110E-06 -7.41529582E-01 -2.79371987E-06  0.00000000E+00
  0.00000000E+00 -3.57815789E-06 -5.88777744E-01 -6.24977264E-06  0.00000000E+00
  0.00000000E+00  3.69594491E-06 -1.94928766E-01  0.00000000E+00 -6.77551023E-01
  1.52634623E-05  0.00000000E+00  0.00000000E+00 -4.21942919E-01 -2.15550524E-05
 -6.48610471E-01 -9.13211766E-01  5.69077119E-01  6.81566053E-01 -4.88206909E-01
  0.00000000E+00 -1.94853774E-01  1.36624613E-01  0.00000000E+00  6.48585638E-01
  9.13165809E-01 -5.69090962E-01  6.81534492E-01  4.88177321E-01  0.00000000E+00
 -1.94850588E-01 -1.36625303E-01  0.00000000E+00  1.54346208E-02  5.46303081E-02
 -8.06938536E-01  2.02808997E+00 -3.05052436E-01  1.28028788E-01  8.19098770E-06
  1.40905590E-01  0.00000000E+00 -6.18528634E-05 -9.28257382E-01  0.00000000E+00
  1.25887105E-05 -7.14292541E-03  0.00000000E+00 -2.36176637E-07 -6.70605826E-02
  0.00000000E+00 -9.40449123E-01  0.00000000E+00  0.00000000E+00  3.17192196E-01
  2.80921373E-05  1.55195644E-01  0.00000000E+00  0.00000000E+00 -3.80884292E-02
  1.26230622E-05 -2.01080470E-01  0.00000000E+00  0.00000000E+00  1.02698312E-01
  3.91156120E-06  0.00000000E+00  1.72076282E-05  2.87324850E-01  0.00000000E+00
  0.00000000E+00  4.81131849E-06 -5.33858245E-01 -4.17011234E-01 -5.84330678E-01
  5.39856731E-02  4.86547460E-01 -3.36552532E-01  0.00000000E+00 -1.25933481E-01
  4.84783471E-02  0.00000000E+00 -4.17053680E-01 -5.84383318E-01  5.40437316E-02
 -4.86590693E-01 -3.36580852E-01  0.00000000E+00  1.25951228E-01  4.84900911E-02
  0.00000000E+00  0.00000000E+00  0.00000000E+00  0.00000000E+00  0.00000000E+00
  0.00000000E+00  0.00000000E+00  0.00000000E+00  0.00000000E+00 -3.89982944E-02
  0.00000000E+00  0.00000000E+00  1.47190212E-01  0.00000000E+00  0.00000000E+00
 -1.53670780E-01  0.00000000E+00  0.00000000E+00 -1.90689141E-01  0.00000000E+00
 -2.16623179E-06  1.18863302E+00  0.00000000E+00  0.00000000E+00  0.00000000E+00
  8.24785334E-07 -7.89283500E-01  0.00000000E+00  0.00000000E+00  0.00000000E+00
 -6.58674380E-07  2.64176766E-01  0.00000000E+00  0.00000000E+00 -1.39794157E-01
  0.00000000E+00  0.00000000E+00  3.39743051E-02  5.40792606E-08  0.00000000E+00
  0.00000000E+00  0.00000000E+00  0.00000000E+00  0.00000000E+00  0.00000000E+00
  0.00000000E+00 -1.35889755E-01  0.00000000E+00  0.00000000E+00  1.84167919E-01
  0.00000000E+00  0.00000000E+00  0.00000000E+00  0.00000000E+00  0.00000000E+00
 -1.35889632E-01  0.00000000E+00  0.00000000E+00  1.84166446E-01  0.00000000E+00
  0.00000000E+00  0.00000000E+00  0.00000000E+00  0.00000000E+00  0.00000000E+00
  0.00000000E+00  0.00000000E+00 -5.10603664E-07  0.00000000E+00  0.00000000E+00
  2.46201889E-06  0.00000000E+00  0.00000000E+00 -1.79549627E-06  0.00000000E+00
  0.00000000E+00 -1.38897009E-06  0.00000000E+00  1.18926595E+00  1.95737484E-06
  0.00000000E+00  0.00000000E+00  0.00000000E+00 -8.62857825E-01 -2.05424227E-06
  0.00000000E+00  0.00000000E+00  0.00000000E+00  3.22544038E-01  3.92236467E-07
  0.00000000E+00  0.00000000E+00 -1.96423499E-06  0.00000000E+00  0.00000000E+00
  1.93730418E-06  2.20811859E-01  0.00000000E+00  0.00000000E+00  0.00000000E+00
  0.00000000E+00  0.00000000E+00  0.00000000E+00  0.00000000E+00  1.83815523E-01
  0.00000000E+00  0.00000000E+00 -2.43649520E-01  0.00000000E+00  0.00000000E+00
  0.00000000E+00  0.00000000E+00  0.00000000E+00 -1.83818857E-01  0.00000000E+00
  0.00000000E+00  2.43652372E-01  2.64225405E-03  1.23695891E-02 -2.44518503E-01
  5.94265666E-01  7.20493864E-01  9.63881787E-02  6.65474624E-07  9.86794965E-02
  0.00000000E+00 -9.23377477E-06 -5.80389473E-01  0.00000000E+00  2.54183585E-06
 -1.17759843E-01  0.00000000E+00  3.12229051E-07  1.82519649E-01  0.00000000E+00
  4.94302462E-01  0.00000000E+00  0.00000000E+00  1.08065150E+00 -2.88781811E-07
 -5.02754982E-01  0.00000000E+00  0.00000000E+00 -7.51997193E-01  4.84049550E-06
  3.21149856E-02  0.00000000E+00  0.00000000E+00  2.89871181E-01 -1.24808718E-06
  0.00000000E+00  1.70900125E-06  2.00486298E-01  0.00000000E+00  0.00000000E+00
  1.80966408E-06 -1.19286080E-01 -1.61978548E-01 -5.13160297E-01 -1.15302794E-01
  3.49492553E-01  2.82383921E-03  0.00000000E+00 -3.82502277E-02 -1.99263758E-01
  0.00000000E+00 -1.61985038E-01 -5.13167983E-01 -1.15290954E-01 -3.49498794E-01
  2.82377869E-03  0.00000000E+00  3.82535473E-02 -1.99262251E-01  0.00000000E+00
  2.25395383E-02  8.08952404E-02 -1.29378338E+00  3.10414093E+00  7.45991593E-01
 -6.53445912E-01 -1.10951150E-05  2.73401576E-01  0.00000000E+00  4.65671930E-05
 -1.69242075E+00  0.00000000E+00  2.81526523E-05 -1.94653653E-01  0.00000000E+00
 -1.98204432E-06  1.30596511E-01  0.00000000E+00  5.62335997E-01  0.00000000E+00
  0.00000000E+00 -4.49202722E-01  4.94042589E-05 -1.16196301E+00  0.00000000E+00
  0.00000000E+00  7.34763741E-01 -7.14522336E-05  5.48046170E-02  0.00000000E+00
  0.00000000E+00 -7.61699196E-02  2.63590940E-07  0.00000000E+00 -1.76103208E-05
  4.52080439E-01  0.00000000E+00  0.00000000E+00 -2.29245645E-05 -9.71537113E-01
 -8.56967269E-01 -1.41280384E+00  5.14022123E-01  7.31087022E-01 -6.77938852E-01
  0.00000000E+00  7.41551621E-02  1.62375818E-02  0.00000000E+00 -8.56924976E-01
 -1.41272102E+00  5.14033443E-01 -7.31048458E-01 -6.77908403E-01  0.00000000E+00
 -7.41506180E-02  1.62516020E-02  0.00000000E+00 -9.05702914E-07 -3.41793987E-06
  5.93821492E-05 -1.59106569E-04 -2.55741898E-05  3.04043481E-05 -3.68380015E-01
 -1.02613342E-05  0.00000000E+00  2.19840094E+00  7.68915156E-05  0.00000000E+00
  6.67433595E-01  4.04565547E-06  0.00000000E+00 -9.44901603E-02 -5.92046646E-06
  0.00000000E+00 -1.63498017E-05  0.00000000E+00  0.00000000E+00  1.87521931E-05
  9.97888783E-01  4.84646801E-05  0.00000000E+00  0.00000000E+00 -3.97707981E-05
 -2.03929780E+00 -1.20492432E-06  0.00000000E+00  0.00000000E+00  1.47531629E-06
 -5.31537650E-02  0.00000000E+00 -6.64148240E-01 -1.89966353E-05  0.00000000E+00
  0.00000000E+00 -4.47353572E-01  4.73606631E-05 -9.24302873E-01 -1.54707732E+00
  1.66188287E-01  7.70390150E-01 -5.25926479E-01  0.00000000E+00  4.24848366E-03
 -1.28806403E-01  0.00000000E+00  9.24391205E-01  1.54721197E+00 -1.66239499E-01
  7.70460194E-01  5.25980122E-01  0.00000000E+00  4.25209687E-03  1.28804988E-01
  0.00000000E+00 -1.39432028E+00  1.71825509E+00 -1.75629706E+00  2.28598693E+00
 -1.89559118E+00 -6.24158773E-01 -5.85194493E-08  3.82429456E-02  0.00000000E+00
 -1.14989288E-06 -2.45817638E-01  0.00000000E+00  2.89850685E-06  2.50682084E-01
  0.00000000E+00  4.73734115E-07  2.58867058E-02  0.00000000E+00  6.40156772E-03
  0.00000000E+00  0.00000000E+00 -7.56517046E-03  2.64411930E-07 -8.65365895E-02
  0.00000000E+00  0.00000000E+00  5.24552459E-02 -6.01427002E-07  2.96245343E-02
  0.00000000E+00  0.00000000E+00 -6.75669438E-02  4.90035648E-07  0.00000000E+00
  8.58397445E-08  2.46767771E-02  0.00000000E+00  0.00000000E+00 -3.90792600E-07
 -4.81006002E-02 -9.92867004E-02 -8.58401578E-02  8.02016522E-01  9.88794426E-02
 -7.49030751E-02  0.00000000E+00 -1.65311915E-01  2.00024026E-01  0.00000000E+00
 -9.92879275E-02 -8.58396630E-02  8.02028956E-01 -9.88792045E-02 -7.49018691E-02
  0.00000000E+00  1.65315424E-01  2.00024816E-01  0.00000000E+00
Orthonormal basis                          R   N=        3364
  1.75074804E-02  4.06338637E-02  9.98532172E-02  1.35000531E-01  1.50961698E-01
  1.32223709E-01 -1.13293353E-07 -2.09579890E-02  0.00000000E+00 -1.57351392E-07
 -4.34793562E-02  0.00000000E+00 -9.97163937E-08 -4.85426677E-02  0.00000000E+00
 -4.28411556E-08 -3.07959158E-02  0.00000000E+00 -5.82617966E-03  0.00000000E+00
  0.00000000E+00  1.27570152E-03  1.66701294E-08 -1.38719024E-02  0.00000000E+00
  0.00000000E+00  2.09506346E-03 -1.33363718E-08 -8.90444883E-03  0.00000000E+00
  0.00000000E+00 -2.66905568E-03 -2.43986902E-08  0.00000000E+00  1.22016956E-08
  3.43365875E-03  0.00000000E+00  0.00000000E+00 -4.18597823E-08 -5.73860415E-03
  6.76051397E-02  1.17787685E-01  1.29625953E-01 -4.39961276E-02  1.66159145E-02
  0.00000000E+00 -7.19098295E-02  1.81815523E-02  0.00000000E+00  6.76053796E-02
  1.17787936E-01  1.29626082E-01  4.39963103E-02  1.66156395E-02  0.00000000E+00
  7.19097991E-02  1.81809135E-02  0.00000000E+00 -6.28450136E-08 -1.25824051E-07
 -2.52788344E-07 -2.70768358E-07 -1.95378697E-07 -8.49155489E-08  7.89629273E-02
 -3.36724022E-07  0.00000000E+00  1.65245750E-01 -7.45889885E-07  0.00000000E+00
  2.13398277E-01 -1.04904826E-06  0.00000000E+00  1.72649077E-01 -8.90218679E-07
  0.00000000E+00  1.62460903E-08  0.00000000E+00  0.00000000E+00 -2.10690113E-07
 -2.11985250E-02 -1.74361317E-08  0.00000000E+00  0.00000000E+00 -4.96390728E-07
 -5.72965534E-02 -1.07904350E-07  0.00000000E+00  0.00000000E+00 -4.94961582E-07
 -6.72546977E-02  0.00000000E+00 -1.03379005E-02  2.75453489E-08  0.00000000E+00
  0.00000000E+00  2.37710585E-04  5.14327274E-08  1.07446431E-01  1.30794021E-01
  8.84388074E-02  2.59976142E-02  2.91156846E-02  0.00000000E+00  1.48227167E-01
  1.08527336E-02  0.00000000E+00 -1.07446380E-01 -1.30793664E-01 -8.84384138E-02
  2.59979874E-02 -2.91161272E-02  0.00000000E+00  1.48227574E-01 -1.08542912E-02
  0.00000000E+00  2.02740132E-02  3.86931315E-02  7.10130855E-02  7.97098603E-02
  7.28574267E-02  5.01924900E-02  3.31402598E-07  7.25874464E-02  0.00000000E+00
  7.90011120E-07  1.53668627E-01  0.00000000E+00  1.16255512E-06  2.16469604E-01
  0.00000000E+00  1.02842834E-06  1.92020642E-01  0.00000000E+00  4.82518304E-03
  0.00000000E+00  0.00000000E+00  2.13697807E-02 -2.15137454E-07  1.71290810E-02
  0.00000000E+00  0.00000000E+00  5.16657238E-02 -5.21898225E-07  3.08048461E-02
  0.00000000E+00  0.00000000E+00  6.80267035E-02 -5.65689656E-07  0.00000000E+00
 -4.88821996E-08 -5.78463299E-03  0.00000000E+00  0.00000000E+00 -9.32568756E-08
 -1.64623889E-03 -3.49953902E-02 -3.74833935E-02 -1.95591321E-02  2.91875324E-02
  9.47589910E-02  0.00000000E+00  1.29918628E-02  2.12491236E-01  0.00000000E+00
 -3.49957828E-02 -3.74837012E-02 -1.95592826E-02 -2.91866795E-02  9.47595609E-02
  0.00000000E+00 -1.29896549E-02  2.12491525E-01  0.00000000E+00 -8.07589169E-02
 -1.13464666E-01 -1.18727777E-01 -7.97834827E-02 -1.44372248E-02  3.48554683E-02
 -4.36245719E-07  2.27331675E-02  0.00000000E+00 -7.13167944E-07  2.95643120E-03
  0.00000000E+00 -4.60823686E-07 -4.98574055E-02  0.00000000E+00 -8.64727106E-08
 -6.42345704E-02  0.00000000E+00 -4.48245887E-02  0.00000000E+00  0.00000000E+00
  1.63532224E-01 -1.18754441E-06 -1.01024762E-01  0.00000000E+00  0.00000000E+00
  2.98367870E-01 -2.16385054E-06 -1.21166473E-01  0.00000000E+00  0.00000000E+00
  2.60267825E-01 -2.20223130E-06  0.00000000E+00  1.65704149E-07 -1.64200114E-03
  0.00000000E+00  0.00000000E+00 -7.77131047E-07 -5.04028685E-02  1.03427662E-01
  7.70033142E-02  6.30606535E-02  2.03663251E-01  8.62033574E-02  0.00000000E+00
  9.53685920E-02 -1.20254805E-02  0.00000000E+00  1.03427049E-01  7.70025779E-02
  6.30602732E-02 -2.03663804E-01  8.62052963E-02  0.00000000E+00 -9.53681912E-02
 -1.20247418E-02  0.00000000E+00 -8.51861335E-07 -1.08997727E-06 -8.43959272E-07
 -3.58659645E-07  1.61586535E-07  3.74244763E-07  1.18390112E-01 -5.10840043E-07
  0.00000000E+00  1.37360747E-01 -6.85060025E-07  0.00000000E+00  1.19730614E-01
 -2.79279371E-07  0.00000000E+00  9.44243480E-02  1.96648853E-07  0.00000000E+00
 -3.64650314E-07  0.00000000E+00  0.00000000E+00  1.09904142E-06  2.07065025E-01
 -6.41350485E-07  0.00000000E+00  0.00000000E+00  2.19625438E-06  3.62029131E-01
 -3.71331914E-07  0.00000000E+00  0.00000000E+00  2.50722834E-06  3.25760781E-01
  0.00000000E+00  1.75359910E-02  1.71055032E-07  0.00000000E+00  0.00000000E+00
  7.57279959E-02 -9.59907649E-07 -1.39912800E-01 -6.42156044E-02  6.27008706E-03
  2.60221659E-02  1.62729566E-01  0.00000000E+00  2.02242258E-02  1.03021561E-01
  0.00000000E+00  1.39913582E-01  6.42157167E-02 -6.26972549E-03  2.60196470E-02
 -1.62730918E-01  0.00000000E+00  2.02235108E-02 -1.03020368E-01  0.00000000E+00
  2.22405120E-01  2.68785496E-01  1.96168671E-01  8.26036876E-02 -8.01985279E-02
 -1.79297921E-01 -3.31540659E-06 -1.99332662E-01  0.00000000E+00 -2.74606643E-06
 -2.03656075E-01  0.00000000E+00  4.27292202E-07 -8.60167878E-02  0.00000000E+00
  2.30409355E-06 -1.26622132E-02  0.00000000E+00 -4.92144456E-02  0.00000000E+00
  0.00000000E+00  1.33783315E-01  9.67186209E-07 -3.66598673E-02  0.00000000E+00
  0.00000000E+00  1.85217827E-01  6.70240717E-07  3.21405154E-02  0.00000000E+00
  0.00000000E+00  1.16033672E-01 -6.90071754E-07  0.00000000E+00  2.37095431E-07
  3.83988501E-03  0.00000000E+00  0.00000000E+00 -1.24348434E-07 -3.01149495E-02
  2.78575735E-02 -2.46573945E-02 -1.36974812E-01 -1.23008416E-01  1.67447766E-01
  0.00000000E+00  4.63710993E-02 -1.23649767E-02  0.00000000E+00  2.78610148E-02
 -2.46566790E-02 -1.36976541E-01  1.23013238E-01  1.67449572E-01  0.00000000E+00
 -4.63675863E-02 -1.23648469E-02  0.00000000E+00  1.17167875E-06  1.38381758E-06
  1.10411172E-06  6.38217048E-07 -4.72924989E-07 -1.41203655E-06  3.08081212E-01
 -3.40267915E-06  0.00000000E+00  2.83599557E-01 -3.59177171E-06  0.00000000E+00
 -1.73940913E-02 -8.65289653E-07  0.00000000E+00 -2.19877113E-01  1.14635157E-06
  0.00000000E+00 -1.06870100E-06  0.00000000E+00  0.00000000E+00  6.05379653E-07
 -1.67094848E-01 -1.21310010E-06  0.00000000E+00  0.00000000E+00  1.30897823E-06
 -1.59315701E-01  2.39857002E-07  0.00000000E+00  0.00000000E+00  1.93037844E-06
  8.10475968E-02  0.00000000E+00 -3.85086708E-02  3.49853885E-07  0.00000000E+00
  0.00000000E+00 -5.83794091E-03 -5.43092177E-07  1.12035936E-01  1.01399758E-02
 -8.19837939E-02 -1.76243338E-01  1.77827963E-01  0.00000000E+00 -1.72787008E-01
  3.09339329E-02  0.00000000E+00 -1.12036009E-01 -1.01404419E-02  8.19810553E-02
 -1.76240330E-01 -1.77822826E-01  0.00000000E+00 -1.72787912E-01 -3.09318612E-02
  0.00000000E+00  7.63630439E-02  8.20432159E-02  3.47124014E-02  1.26102422E-02
  2.19649987E-02  4.61555276E-02  1.42028067E-06  8.83867746E-02  0.00000000E+00
  1.24807604E-06  7.39300701E-02  0.00000000E+00  5.48147570E-08 -6.59009019E-02
  0.00000000E+00 -7.86408129E-07 -1.66241360E-01  0.00000000E+00  3.31359784E-01
  0.00000000E+00  0.00000000E+00  1.11290634E-01 -5.64197357E-07  4.33060051E-01
  0.00000000E+00  0.00000000E+00  1.46259570E-01 -3.38042518E-07  2.69729067E-01
  0.00000000E+00  0.00000000E+00  5.95243409E-02  7.51961429E-07  0.00000000E+00
 -1.95672552E-07 -4.08185473E-02  0.00000000E+00  0.00000000E+00  9.51682921E-08
  3.81868601E-02 -1.24362215E-01 -3.13398067E-02  6.46056854E-02  9.89271334E-02
  3.90474549E-02  0.00000000E+00 -4.04799696E-02 -8.43133214E-02  0.00000000E+00
 -1.24362748E-01 -3.13395230E-02  6.46060303E-02 -9.89271471E-02  3.90479128E-02
  0.00000000E+00  4.04785667E-02 -8.43144695E-02  0.00000000E+00  3.21217453E-01
  3.28436366E-01  1.17193749E-01  2.02897665E-02 -1.59819343E-02 -4.40930970E-03
  2.53415022E-06  2.97330004E-01  0.00000000E+00  2.06497368E-06  2.73670196E-01
  0.00000000E+00  1.67671901E-07  4.09610844E-02  0.00000000E+00 -1.07151072E-06
 -1.36569783E-01  0.00000000E+00 -1.05383682E-01  0.00000000E+00  0.00000000E+00
 -4.09110247E-02  3.89011291E-07 -1.67257565E-01  0.00000000E+00  0.00000000E+00
 -4.42669064E-02  8.23215546E-07 -2.04487923E-01  0.00000000E+00  0.00000000E+00
 -4.95161833E-02  1.04338100E-06  0.00000000E+00  2.69657477E-08 -1.65430948E-02
  0.00000000E+00  0.00000000E+00 -3.63565655E-08  1.41162773E-02 -2.79458993E-02
 -4.54576140E-03  3.32658237E-02  1.31628126E-01 -5.36847855E-02  0.00000000E+00
  3.20893556E-02 -1.34741393E-01  0.00000000E+00 -2.79468906E-02 -4.54608402E-03
  3.32661017E-02 -1.31629512E-01 -5.36844044E-02  0.00000000E+00 -3.20912789E-02
 -1.34741434E-01  0.00000000E+00 -2.82579094E-01 -1.91196445E-01  1.14383160E-01
  1.32686982E-01  3.13984643E-02 -6.07973858E-02  5.64069283E-07  1.94519606E-01
  0.00000000E+00  7.95491897E-07  1.91546743E-01  0.00000000E+00  1.16375351E-06
  4.61093452E-02  0.00000000E+00  1.64318003E-06 -1.54467786E-01  0.00000000E+00
 -2.63064664E-01  0.00000000E+00  0.00000000E+00  3.06709123E-01 -1.89091714E-06
 -1.41970539E-01  0.00000000E+00  0.00000000E+00  1.78376165E-01 -5.47850097E-07
  1.19363062E-01  0.00000000E+00  0.00000000E+00 -2.66535572E-01  4.24687207E-06
  0.00000000E+00  4.37632053E-07 -5.79907082E-02  0.00000000E+00  0.00000000E+00
 -5.60830166E-06  2.67601685E-02 -8.07520337E-02 -7.58075763E-02 -4.23226034E-02
 -1.13292991E-01  1.79451874E-01  0.00000000E+00 -1.54417543E-01 -1.48155072E-01
  0.00000000E+00 -8.07499118E-02 -7.58060712E-02 -4.23232096E-02  1.13288536E-01
  1.79455844E-01  0.00000000E+00  1.54417955E-01 -1.48157310E-01  0.00000000E+00
 -3.03488803E-06 -1.76522726E-06  1.67684135E-06  1.58078942E-06  3.38337775E-07
 -4.75732494E-07 -1.17924354E-01  2.67361731E-06  0.00000000E+00 -6.24831906E-02
  2.49860182E-06  0.00000000E+00 -3.36570740E-02  4.69202952E-07  0.00000000E+00
 -6.65396925E-02 -2.29320850E-06  0.00000000E+00 -2.88027722E-06  0.00000000E+00
  0.00000000E+00  1.25332351E-06 -1.36387159E-01 -1.22535695E-06  0.00000000E+00
  0.00000000E+00  7.88719111E-07 -1.11479770E-01  1.09724376E-06  0.00000000E+00
  0.00000000E+00 -1.50699040E-06 -1.03595970E-01  0.00000000E+00 -1.13081678E-01
 -1.07808763E-06  0.00000000E+00  0.00000000E+00  7.26975183E-01 -4.14925151E-06
 -1.98411880E-03  1.08048505E-02 -9.43030855E-03  2.34646398E-01  2.33492427E-01
  0.00000000E+00 -1.80409950E-02 -2.12980070E-02  0.00000000E+00  1.98121995E-03
 -1.08062826E-02  9.43020118E-03  2.34646338E-01 -2.33489419E-01  0.00000000E+00
 -1.80393519E-02  2.12948194E-02  0.00000000E+00 -1.72479537E-06 -9.36843653E-07
  9.15098184E-07  6.99721048E-07  8.76442224E-08 -2.50522793E-07  1.82800663E-01
 -8.68698351E-07  0.00000000E+00  1.61679957E-01 -1.95843573E-07  0.00000000E+00
 -3.52047540E-02  4.61575508E-07  0.00000000E+00 -2.96180165E-01  7.79881792E-07
  0.00000000E+00 -9.79165912E-07  0.00000000E+00  0.00000000E+00  5.79841259E-06
  5.75689357E-01 -4.52879848E-07  0.00000000E+00  0.00000000E+00  2.62220600E-06
  2.23497164E-01 -3.43567319E-07  0.00000000E+00  0.00000000E+00 -2.61435426E-06
 -3.58478685E-01  0.00000000E+00 -1.62870108E-01 -8.17812268E-07  0.00000000E+00
  0.00000000E+00  8.05432079E-03  3.58108564E-06  1.19121231E-01  1.11298858E-01
 -3.43520386E-02  1.54773289E-01 -6.82118817E-02  0.00000000E+00 -1.12193455E-01
 -1.26284809E-01  0.00000000E+00 -1.19121725E-01 -1.11298994E-01  3.43515867E-02
  1.54775388E-01  6.82114161E-02  0.00000000E+00 -1.12192451E-01  1.26284726E-01
  0.00000000E+00 -2.17220168E-03 -1.12316465E-03 -9.05540586E-03 -1.89439313E-02
  1.87610529E-02  9.01675046E-02 -1.67454962E-06 -1.37403559E-01  0.00000000E+00
 -8.50338203E-07 -5.99968863E-02  0.00000000E+00  3.43476826E-07 -1.72292104E-02
  0.00000000E+00  1.28217803E-06 -2.95350003E-02  0.00000000E+00 -1.44765744E-01
  0.00000000E+00  0.00000000E+00  1.81857159E-02 -2.42471247E-06 -6.93087337E-02
  0.00000000E+00  0.00000000E+00  2.38268806E-02 -6.37051314E-07 -7.17086056E-02
  0.00000000E+00  0.00000000E+00  1.64609793E-01  2.49009162E-06  0.00000000E+00
 -2.93270287E-06 -3.06614207E-01  0.00000000E+00  0.00000000E+00  3.51251268E-06
  7.63802799E-01 -2.23823833E-01  8.89956668E-05  8.75861120E-02 -4.07315114E-02
 -2.66529663E-02  0.00000000E+00  7.65541522E-02  2.09672202E-02  0.00000000E+00
 -2.23824563E-01  9.03352952E-05  8.75860783E-02  4.07314833E-02 -2.66516186E-02
  0.00000000E+00 -7.65536271E-02  2.09650111E-02  0.00000000E+00  6.28420211E-05
  2.44677274E-05 -5.42583297E-05 -4.23304111E-05 -4.56847901E-07  2.39766147E-05
  2.17725987E-01 -1.31119665E-05  0.00000000E+00  7.70698842E-02 -1.43560167E-05
  0.00000000E+00 -3.66066132E-02  1.59427883E-05  0.00000000E+00 -3.78178455E-02
  6.49699489E-05  0.00000000E+00  1.88230214E-05  0.00000000E+00  0.00000000E+00
  1.63834047E-04  2.76937431E-02 -2.77050721E-06  0.00000000E+00  0.00000000E+00
  5.30555502E-05 -5.67591464E-03 -1.52302667E-05  0.00000000E+00  0.00000000E+00
 -9.35495120E-05 -2.29577010E-01  0.00000000E+00  8.77147433E-01  1.88079658E-04
  0.00000000E+00  0.00000000E+00  1.64456648E-01  1.04044954E-04 -1.39595644E-01
  1.30954499E-02  1.48402146E-02 -2.68299711E-02 -1.13880057E-02  0.00000000E+00
  2.09405043E-02 -8.96472871E-02  0.00000000E+00  1.39633776E-01 -1.30893898E-02
 -1.48360554E-02 -2.68301351E-02  1.12723892E-02  0.00000000E+00  2.10066381E-02
  8.96764628E-02  0.00000000E+00  1.83648839E-01  7.13225784E-02 -1.58833458E-01
 -1.23850281E-01 -1.80505205E-03  6.89416990E-02 -7.41851342E-05 -3.26236877E-02
  0.00000000E+00 -2.68433353E-05 -3.95794494E-02  0.00000000E+00  1.23475547E-05
  4.61867127E-02  0.00000000E+00  1.40209102E-05  1.89372957E-01  0.00000000E+00
  5.93433975E-02  0.00000000E+00  0.00000000E+00  4.77139891E-01 -1.31612221E-05
 -7.08870975E-03  0.00000000E+00  0.00000000E+00  1.54334800E-01  8.55386567E-07
 -4.70376179E-02  0.00000000E+00  0.00000000E+00 -2.69151239E-01  7.92782094E-05
  0.00000000E+00 -2.96292823E-04  5.76620962E-01  0.00000000E+00  0.00000000E+00
 -5.07656399E-05  3.04490933E-01  5.85586779E-02  9.38941869E-03  5.21527987E-03
 -9.21054143E-04 -1.68276263E-01  0.00000000E+00 -9.54098005E-02  4.26608465E-02
  0.00000000E+00  5.84644526E-02  9.39842923E-03  5.22523744E-03  9.36702105E-04
 -1.68284092E-01  0.00000000E+00  9.53963648E-02  4.26000268E-02  0.00000000E+00
 -2.40242579E-01 -8.22341734E-02  2.24101509E-01  1.73716704E-01 -1.77049964E-03
 -1.18041215E-01  1.62121904E-06  1.66835628E-01  0.00000000E+00  1.03602735E-06
  8.97667701E-02  0.00000000E+00 -1.50917598E-07 -5.02407155E-02  0.00000000E+00
 -1.01085407E-06 -1.93941895E-01  0.00000000E+00  2.54767137E-02  0.00000000E+00
  0.00000000E+00 -3.02487524E-01  2.17200603E-06  2.97448321E-02  0.00000000E+00
  0.00000000E+00 -6.48123026E-02  2.50707375E-07 -9.35260596E-03  0.00000000E+00
  0.00000000E+00  3.28395308E-01 -2.61640073E-06  0.00000000E+00  6.91320081E-06
  6.70246553E-01  0.00000000E+00  0.00000000E+00  8.68772573E-07  2.30583072E-01
 -2.21612396E-02 -1.70062238E-04 -3.42803649E-02 -7.77279950E-02  6.58923365E-02
  0.00000000E+00  1.26820894E-01 -3.81376267E-02  0.00000000E+00 -2.21599624E-02
 -1.70014799E-04 -3.42805610E-02  7.77289166E-02  6.58922226E-02  0.00000000E+00
 -1.26821029E-01 -3.81367170E-02  0.00000000E+00  2.28640480E-01  6.43880432E-02
 -2.30290729E-01 -1.79995620E-01 -3.79973016E-03  1.37164773E-01 -7.16635187E-08
  7.43362056E-03  0.00000000E+00 -3.48205490E-07 -1.65076287E-02  0.00000000E+00
 -5.86092250E-07 -7.03373669E-02  0.00000000E+00 -4.64399950E-07 -8.08345658E-02
  0.00000000E+00 -5.72473066E-01  0.00000000E+00  0.00000000E+00 -1.65922289E-01
  2.21987602E-06 -5.78861657E-02  0.00000000E+00  0.00000000E+00 -1.55323007E-02
  3.79666108E-07  6.54586327E-01  0.00000000E+00  0.00000000E+00  1.54882160E-01
 -2.48889972E-06  0.00000000E+00 -4.30744015E-07  1.59978349E-01  0.00000000E+00
  0.00000000E+00 -9.41581235E-07 -5.39073401E-02 -1.11807519E-02 -4.43017304E-02
  8.44674875E-02  4.76568223E-02  5.93059730E-03  0.00000000E+00 -6.97995634E-02
  5.89614094E-02  0.00000000E+00 -1.11805534E-02 -4.43022425E-02  8.44674966E-02
 -4.76571266E-02  5.93036534E-03  0.00000000E+00  6.98000650E-02  5.89617100E-02
  0.00000000E+00 -6.49126670E-07 -5.11189196E-08  9.74761173E-07  7.73678758E-07
  3.00699796E-07  7.78819153E-07  5.09134611E-01 -2.90540554E-06  0.00000000E+00
 -7.72259984E-02  7.28355861E-08  0.00000000E+00 -2.54069068E-01  1.37063822E-06
  0.00000000E+00  2.41525902E-01 -1.58363167E-06  0.00000000E+00  1.62147620E-07
  0.00000000E+00  0.00000000E+00 -5.69070180E-07 -7.91357696E-02  2.21561399E-07
  0.00000000E+00  0.00000000E+00  1.58792955E-07  7.11943346E-02 -1.15136510E-06
  0.00000000E+00  0.00000000E+00 -8.01462262E-07 -3.52742245E-01  0.00000000E+00
 -3.94281534E-01  1.17976900E-06  0.00000000E+00  0.00000000E+00  1.16965670E-01
 -1.87586876E-06 -3.00706607E-01 -1.37426861E-01  7.44792492E-02 -2.46698890E-01
  2.38069529E-02  0.00000000E+00  2.13188154E-01 -2.17131620E-01  0.00000000E+00
  3.00701194E-01  1.37426347E-01 -7.44769249E-02 -2.46697899E-01 -2.38066564E-02
  0.00000000E+00  2.13185908E-01  2.17129375E-01  0.00000000E+00 -6.48241971E-02
  1.11361120E-03  9.47265770E-02  1.05453770E-01 -2.40181437E-02 -3.03079659E-01
  3.49006290E-06  5.90168797E-01  0.00000000E+00 -1.16037151E-06 -1.04185489E-01
  0.00000000E+00 -1.68375815E-06 -3.02212665E-01  0.00000000E+00  1.86348687E-06
  1.52355229E-01  0.00000000E+00  5.65276779E-02  0.00000000E+00  0.00000000E+00
  6.23612027E-02 -9.66835746E-07 -3.49391504E-02  0.00000000E+00  0.00000000E+00
  2.68348061E-02 -2.52493028E-08  2.82690930E-01  0.00000000E+00  0.00000000E+00
  1.42100520E-01 -1.18438651E-06  0.00000000E+00 -2.67100980E-06 -2.67123656E-01
  0.00000000E+00  0.00000000E+00  4.32378847E-06  2.61135727E-01  3.04302340E-01
  1.35652973E-01 -2.31218691E-01  1.96364873E-02 -2.41598843E-01  0.00000000E+00
 -1.07130564E-01  1.42124726E-01  0.00000000E+00  3.04301537E-01  1.35654475E-01
 -2.31218766E-01 -1.96429311E-02 -2.41597059E-01  0.00000000E+00  1.07132722E-01
  1.42123854E-01  0.00000000E+00 -6.66209138E-02  1.50805206E-02  7.33530497E-02
 -8.31425363E-03 -2.58812175E-02  1.28305980E-01 -1.06466164E-06  2.44781894E-01
  0.00000000E+00  7.24722041E-07 -1.41637622E-02  0.00000000E+00  8.15449821E-07
 -7.53340346E-02  0.00000000E+00 -2.40550049E-07 -5.57548499E-02  0.00000000E+00
 -1.72669172E-01  0.00000000E+00  0.00000000E+00  6.31771741E-01 -1.28014579E-06
  1.14584855E-01  0.00000000E+00  0.00000000E+00 -2.90697610E-01  2.90648663E-07
 -3.87769609E-02  0.00000000E+00  0.00000000E+00  3.80093471E-01  7.65801195E-07
  0.00000000E+00  7.04842162E-07 -3.53988284E-02  0.00000000E+00  0.00000000E+00
  8.51909841E-07 -3.62485697E-01 -1.82690777E-01 -3.41231299E-02  1.36531589E-01
 -3.24860400E-01 -2.78319527E-01  0.00000000E+00  3.14011802E-01  7.42642914E-02
  0.00000000E+00 -1.82692864E-01 -3.41244410E-02  1.36531868E-01  3.24855885E-01
 -2.78313835E-01  0.00000000E+00 -3.14012471E-01  7.42626238E-02  0.00000000E+00
  1.64517242E-06 -5.83652372E-07 -1.94615910E-06 -6.96520029E-07  2.51972032E-07
  3.48331821E-07  1.09631130E-01 -3.89841880E-06  0.00000000E+00 -4.81227626E-02
  1.26569490E-06  0.00000000E+00 -1.15159998E-02  1.59926978E-06  0.00000000E+00
  2.08691697E-01 -1.43128985E-06  0.00000000E+00  1.92994327E-06  0.00000000E+00
  0.00000000E+00 -4.75456192E-06  5.03426614E-01 -1.23819437E-06  0.00000000E+00
  0.00000000E+00  2.12316341E-06 -3.10488732E-01 -5.88939107E-07  0.00000000E+00
  0.00000000E+00  8.80546194E-07  3.48547815E-01  0.00000000E+00 -1.17773664E-02
  6.04184832E-07  0.00000000E+00  0.00000000E+00  6.68460214E-01 -4.32522232E-06
  1.75723810E-01 -1.74502549E-02 -2.08806137E-02 -3.83186129E-01 -4.43852297E-01
  0.00000000E+00 -1.79508176E-02  1.54473135E-01  0.00000000E+00 -1.75722576E-01
  1.74491297E-02  2.08806057E-02 -3.83182196E-01  4.43858697E-01  0.00000000E+00
 -1.79490365E-02 -1.54474273E-01  0.00000000E+00  6.30844630E-05 -3.73109740E-05
 -6.25429341E-05 -1.75018513E-05  2.25388225E-06  1.60278238E-05 -5.62705083E-01
  6.88778077E-05  0.00000000E+00  3.78068031E-03 -1.66725205E-05  0.00000000E+00
 -2.28071778E-01 -2.23195580E-06  0.00000000E+00  2.15914061E-01 -8.35223653E-06
  0.00000000E+00  6.24116170E-05  0.00000000E+00  0.00000000E+00 -1.29319631E-05
  7.13074780E-01 -4.61026183E-05  0.00000000E+00  0.00000000E+00  7.39466115E-06
 -4.54086812E-01 -3.84135603E-06  0.00000000E+00  0.00000000E+00  6.97863857E-06
 -1.67488724E-01  0.00000000E+00  1.04747038E-01 -4.10658171E-06  0.00000000E+00
  0.00000000E+00 -2.00116718E-01  7.11326769E-06  7.32461323E-02 -1.40763582E-01
  1.35969574E-02 -3.05457586E-01  5.87495950E-01  0.00000000E+00  1.23676023E-01
 -9.90830223E-02  0.00000000E+00 -7.32528939E-02  1.40749207E-01 -1.35738528E-02
 -3.05351798E-01 -5.87416591E-01  0.00000000E+00  1.23671543E-01  9.90840709E-02
  0.00000000E+00  5.50692454E-01 -3.43441619E-01 -5.32772922E-01 -1.43611678E-01
  1.85634137E-02  1.36308729E-01  6.03190371E-05  5.41316205E-01  0.00000000E+00
  3.57408276E-06 -1.26994990E-01  0.00000000E+00  3.27173832E-05 -4.64378267E-03
  0.00000000E+00 -3.10059573E-05 -8.71743347E-02  0.00000000E+00  5.47815572E-01
  0.00000000E+00  0.00000000E+00 -1.51788308E-01 -8.69707561E-05 -4.28249730E-01
  0.00000000E+00  0.00000000E+00  9.18339988E-02  6.08898137E-05 -7.60793878E-03
  0.00000000E+00  0.00000000E+00  7.73653968E-02  1.43618382E-05  0.00000000E+00
 -1.29062823E-05 -2.83751284E-02  0.00000000E+00  0.00000000E+00  2.59331851E-05
  3.65716029E-02 -9.49111464E-03 -6.79736068E-02  9.52479558E-02 -4.66058148E-01
  3.18912179E-01  0.00000000E+00  1.81920041E-02  8.20740046E-03  0.00000000E+00
 -9.46361293E-03 -6.80121210E-02  9.52493898E-02  4.66124134E-01  3.19050448E-01
  0.00000000E+00 -1.82225032E-02  8.18795617E-03  0.00000000E+00  6.95823875E-02
 -5.05305866E-02 -7.08859570E-02 -6.80319491E-02 -4.24591243E-02  5.03291365E-02
  1.00683770E-06  5.35530309E-01  0.00000000E+00  9.84844114E-07 -4.13082452E-01
  0.00000000E+00  2.37520589E-06 -3.35920779E-01  0.00000000E+00 -1.28369615E-06
  5.10553384E-01  0.00000000E+00 -5.66085416E-01  0.00000000E+00  0.00000000E+00
 -3.26596894E-01 -1.80617436E-06  7.33034242E-01  0.00000000E+00  0.00000000E+00
  3.76063297E-01  1.88178012E-06 -5.35637651E-01  0.00000000E+00  0.00000000E+00
 -2.22172641E-01  6.74364052E-07  0.00000000E+00 -5.06345578E-07  7.01137404E-02
  0.00000000E+00  0.00000000E+00  1.67085559E-06 -8.88175593E-02 -2.35846912E-01
  9.07227752E-02  3.50269421E-02 -6.28714228E-02  1.45954498E-01  0.00000000E+00
 -1.36142846E-02 -2.71120214E-02  0.00000000E+00 -2.35842043E-01  9.07193289E-02
  3.50263513E-02  6.28719267E-02  1.45961778E-01  0.00000000E+00  1.36120258E-02
 -2.71121461E-02  0.00000000E+00  8.85939628E-06 -6.89842131E-06 -7.42018940E-06
 -1.81314416E-06 -6.66555007E-08  1.62992639E-06  8.24091504E-01  8.38033127E-06
  0.00000000E+00 -5.44698352E-01 -3.13777214E-06  0.00000000E+00 -4.03922479E-01
 -1.02711646E-06  0.00000000E+00  3.43152042E-01  3.48764333E-07  0.00000000E+00
  2.81356488E-06  0.00000000E+00  0.00000000E+00  3.19564920E-06  2.43011584E-01
 -1.31119134E-06  0.00000000E+00  0.00000000E+00 -5.76815482E-06 -5.18097732E-01
 -2.22192823E-06  0.00000000E+00  0.00000000E+00  2.78881267E-07  2.72674040E-01
  0.00000000E+00  1.05734800E-01  4.04931280E-07  0.00000000E+00  0.00000000E+00
 -2.87120769E-01  1.96239972E-06  2.30522855E-01 -1.67095786E-01 -5.87474989E-02
  5.38359748E-01  1.20965417E-01  0.00000000E+00  4.23922216E-02  1.75733454E-01
  0.00000000E+00 -2.30522635E-01  1.67095694E-01  5.87496484E-02  5.38368380E-01
 -1.20954839E-01  0.00000000E+00  4.23893428E-02 -1.75733509E-01  0.00000000E+00
  7.57898246E-01 -7.49470672E-01 -3.09154141E-01  4.21091079E-01  3.37589579E-01
 -5.03483088E-01 -2.97272583E-06 -2.68174523E-01  0.00000000E+00  2.50150698E-06
  3.26646100E-01  0.00000000E+00  9.51737584E-07  1.89411787E-01  0.00000000E+00
 -1.41527814E-06 -4.36645773E-01  0.00000000E+00 -3.68358773E-01  0.00000000E+00
  0.00000000E+00  1.95235931E-01 -1.22623921E-06  5.75153345E-01  0.00000000E+00
  0.00000000E+00 -3.01668304E-01  2.66361069E-06 -3.25679455E-01  0.00000000E+00
  0.00000000E+00  2.15040444E-01 -2.42463713E-06  0.00000000E+00 -3.00550089E-07
 -3.62974822E-02  0.00000000E+00  0.00000000E+00  1.00756206E-06  6.61879820E-02
  1.20146667E-01  1.50675705E-01 -2.26357500E-01  4.86762788E-03 -1.53492978E-02
  0.00000000E+00 -1.44597436E-01  7.22049159E-02  0.00000000E+00  1.20146815E-01
  1.50677211E-01 -2.26357444E-01 -4.87186901E-03 -1.53505389E-02  0.00000000E+00
  1.44598460E-01  7.22055704E-02  0.00000000E+00  4.51199301E-03 -6.29213727E-03
  7.68992198E-02  8.89781542E-02 -1.01614503E-01  3.65736722E-01 -1.30952777E-06
  1.07956737E-01  0.00000000E+00  4.03725986E-06 -1.01828058E-01  0.00000000E+00
 -7.39184448E-06  7.72565223E-01  0.00000000E+00  4.90253785E-06 -2.38576534E-01
  0.00000000E+00 -2.43803568E-01  0.00000000E+00  0.00000000E+00 -1.86391174E-01
 -4.89698025E-06  5.71034522E-01  0.00000000E+00  0.00000000E+00  3.43901818E-01
  8.43384501E-06  1.47192998E-01  0.00000000E+00  0.00000000E+00 -3.94485100E-01
  6.64530322E-06  0.00000000E+00  2.00504721E-06 -2.11360535E-01  0.00000000E+00
  0.00000000E+00  3.13120940E-06  3.03302075E-01  8.20322470E-01 -3.43729789E-01
  1.17733169E-01 -2.53363269E-01 -9.95871222E-02  0.00000000E+00  6.12445507E-01
 -1.97139706E-01  0.00000000E+00  8.20300206E-01 -3.43718804E-01  1.17734451E-01
  2.53361022E-01 -9.95925291E-02  0.00000000E+00 -6.12440863E-01 -1.97120513E-01
  0.00000000E+00  1.83679523E-06 -2.60376671E-06 -1.38669202E-06 -8.41880136E-07
  5.82047800E-06 -8.44020103E-06 -1.97377806E-01 -1.28663973E-05  0.00000000E+00
  4.46924294E-01  2.12981541E-05  0.00000000E+00 -8.72076452E-01 -6.32059163E-06
  0.00000000E+00  5.76729757E-01 -1.89688666E-06  0.00000000E+00  4.89217434E-06
  0.00000000E+00  0.00000000E+00 -2.22888575E-05 -4.06956273E-01 -1.46579510E-05
  0.00000000E+00  0.00000000E+00  5.53803094E-05  9.20919197E-01 -5.94932828E-06
  0.00000000E+00  0.00000000E+00  1.73605307E-05  2.16388742E-01  0.00000000E+00
  2.34994572E-01  6.43551334E-07  0.00000000E+00  0.00000000E+00  1.71217173E-01
 -1.93146830E-05  9.17824908E-01 -4.26522115E-01 -1.03261127E-01  7.62436495E-03
 -5.45327493E-02  0.00000000E+00  1.22101789E-01 -5.29116046E-01  0.00000000E+00
 -9.17866130E-01  4.26529037E-01  1.03256710E-01  7.65890640E-03  5.44791861E-02
  0.00000000E+00  1.22139431E-01  5.29124255E-01  0.00000000E+00 -3.50787461E-02
  5.01033785E-02 -5.80162489E-02 -8.10621820E-03  1.32682562E-01 -1.30991108E-01
  7.82157069E-06 -3.13033145E-01  0.00000000E+00 -1.86195848E-05  5.49272631E-01
  0.00000000E+00  2.92720663E-05  1.51616139E-01  0.00000000E+00 -1.92995514E-05
 -2.29307337E-01  0.00000000E+00  3.23532607E-02  0.00000000E+00  0.00000000E+00
 -5.78612041E-01  1.96478560E-05 -1.22315859E-01  0.00000000E+00  0.00000000E+00
  1.42504473E+00 -4.66949275E-05 -1.46746276E-01  0.00000000E+00  0.00000000E+00
  2.88988429E-01 -1.07092289E-05  0.00000000E+00 -7.76710423E-06 -6.76581995E-02
  0.00000000E+00  0.00000000E+00 -1.49278752E-05 -3.16170908E-01 -2.10515089E-01
 -2.66337372E-02 -4.73917121E-02 -4.93945341E-01 -8.04513118E-01  0.00000000E+00
 -2.84885363E-01  1.05262441E-01  0.00000000E+00 -2.10448821E-01 -2.66626542E-02
 -4.73977574E-02  4.93952383E-01 -8.04529424E-01  0.00000000E+00  2.84876551E-01
  1.05218550E-01  0.00000000E+00 -7.95329027E-01  1.22452846E+00 -9.95111331E-01
 -3.70448974E-01  3.65878663E-01 -2.88243131E-01  3.27366599E-06  2.59474953E-01
  0.00000000E+00 -2.73223378E-06 -3.09296843E-01  0.00000000E+00 -9.64062107E-07
  5.35476717E-01  0.00000000E+00  7.58700333E-08 -8.48661153E-01  0.00000000E+00
 -1.11268889E-01  0.00000000E+00  0.00000000E+00  9.08070299E-02 -4.07477520E-06
  3.57033250E-01  0.00000000E+00  0.00000000E+00 -2.62850668E-01  8.64134987E-06
 -4.72105316E-01  0.00000000E+00  0.00000000E+00  2.47969312E-01 -2.08490510E-06
  0.00000000E+00  1.11291715E-06 -2.86909425E-02  0.00000000E+00  0.00000000E+00
  2.18276520E-06  8.36161490E-02  1.36516962E-01  7.97919877E-03 -1.05284937E-01
 -1.89936015E-01  2.18355485E-01  0.00000000E+00 -4.34501132E-01  2.89952594E-01
  0.00000000E+00  1.36509045E-01  7.98284647E-03 -1.05283528E-01  1.89936965E-01
  2.18356582E-01  0.00000000E+00  4.34502431E-01  2.89953482E-01  0.00000000E+00
 -3.75913724E-01  7.31993253E-01 -1.18969763E+00  4.31659476E-01  1.42606020E-01
 -1.60236862E-01  3.92506760E-06 -5.58700252E-01  0.00000000E+00 -5.68821825E-06
  1.82564976E+00  0.00000000E+00  4.35969103E-06 -1.17882055E+00  0.00000000E+00
 -5.58825231E-06  1.30165469E+00  0.00000000E+00 -1.68787601E-02  0.00000000E+00
  0.00000000E+00  3.18664116E-02 -1.41768025E-06  3.32880039E-01  0.00000000E+00
  0.00000000E+00 -2.03868513E-01  3.90306529E-06  8.23464362E-02  0.00000000E+00
  0.00000000E+00  2.56461927E-01  1.52614720E-06  0.00000000E+00  4.77451561E-07
 -1.13502220E-01  0.00000000E+00  0.00000000E+00  1.77751694E-06  2.07272012E-01
  4.58917819E-01  4.84357849E-03  1.27067291E-01 -4.97792353E-01  3.35626136E-01
  0.00000000E+00  2.51550608E-01 -5.35144365E-01  0.00000000E+00  4.58916884E-01
  4.84534894E-03  1.27060162E-01  4.97790776E-01  3.35618343E-01  0.00000000E+00
 -2.51546908E-01 -5.35137236E-01  0.00000000E+00 -1.36687106E-06  2.71103470E-06
 -3.94615551E-06  1.13486242E-06 -2.24599241E-06  1.55707393E-06 -3.02529656E-01
 -2.07592174E-06  0.00000000E+00  8.31958958E-01  8.04147057E-06  0.00000000E+00
 -1.05011287E+00 -5.04172389E-06  0.00000000E+00  1.36636795E+00 -1.70953001E-06
  0.00000000E+00 -4.32045374E-07  0.00000000E+00  0.00000000E+00 -8.67072259E-07
 -1.71742515E-01  3.49166487E-06  0.00000000E+00  0.00000000E+00  4.15739865E-08
  3.51970494E-01 -1.49284971E-06  0.00000000E+00  0.00000000E+00 -1.24973760E-05
 -1.43399826E+00  0.00000000E+00 -5.46224667E-02 -7.81284432E-07  0.00000000E+00
  0.00000000E+00 -2.18463322E-02  2.81600858E-06 -1.97778729E-01  2.07674307E-01
 -5.05329399E-01  4.13333223E-02 -8.25508525E-02  0.00000000E+00 -5.37682435E-01
  1.55439654E+00  0.00000000E+00  1.97790417E-01 -2.07682827E-01  5.05331851E-01
  4.13375923E-02  8.25574138E-02  0.00000000E+00 -5.37699212E-01 -1.55439162E+00
  0.00000000E+00  1.68033743E-01 -3.55172608E-01  8.79056626E-01 -6.74868317E-01
 -8.66071006E-01  8.08327170E-01  6.74131620E-07 -1.97977096E-02  0.00000000E+00
 -1.00541427E-06  4.67533310E-02  0.00000000E+00  5.07300531E-06  2.37468173E-01
  0.00000000E+00  1.80000180E-05  6.76582624E-01  0.00000000E+00 -9.52997870E-02
  0.00000000E+00  0.00000000E+00  1.70425402E-01 -6.05827963E-07  3.30677930E-01
  0.00000000E+00  0.00000000E+00 -4.64690271E-01 -9.05321181E-07 -7.37506964E-01
  0.00000000E+00  0.00000000E+00  1.69921225E+00 -9.49655949E-06  0.00000000E+00
 -1.60579311E-06 -9.07133818E-02  0.00000000E+00  0.00000000E+00 -2.40463799E-08
  1.39768225E-01  6.22463410E-01 -1.12974228E+00  1.92551266E-01 -1.37661485E-01
  2.16643021E-02  0.00000000E+00 -1.49892266E+00 -5.44879970E-01  0.00000000E+00
  6.22471335E-01 -1.12974648E+00  1.92551123E-01  1.37661756E-01  2.16609450E-02
  0.00000000E+00  1.49889336E+00 -5.44868999E-01  0.00000000E+00 -3.77766238E-06
  8.25667819E-06 -2.04933280E-05  1.41838666E-05  1.23542530E-05 -7.81574415E-06
 -2.97066128E-01  4.00347930E-06  0.00000000E+00  1.40932488E+00 -7.59607386E-06
  0.00000000E+00 -3.63231226E-01  1.41586332E-05  0.00000000E+00  1.73147980E+00
  6.43023113E-06  0.00000000E+00  1.79921445E-06  0.00000000E+00  0.00000000E+00
  6.60242107E-07  1.85988242E-01 -2.93108400E-06  0.00000000E+00  0.00000000E+00
 -5.39991224E-06 -1.10909266E+00  1.12416169E-05  0.00000000E+00  0.00000000E+00
  7.74827856E-06  1.06119412E+00  0.00000000E+00 -2.23275932E-01  4.20587813E-07
  0.00000000E+00  0.00000000E+00 -1.80848120E-01  1.29648441E-06 -9.71747517E-01
  7.72974132E-01 -4.17800063E-01  6.19074144E-01 -3.12427167E-01  0.00000000E+00
 -1.09123971E+00 -1.44291680E+00  0.00000000E+00  9.71743415E-01 -7.72945193E-01
  4.17791087E-01  6.19073954E-01  3.12418918E-01  0.00000000E+00 -1.09124971E+00
  1.44289869E+00  0.00000000E+00 -1.02329269E-01  2.39576177E-01 -8.40516087E-01
  1.11421799E+00  7.80612555E-01 -1.70903335E-01 -3.42761634E-07  3.34813417E-01
  0.00000000E+00 -4.44228855E-06 -1.21573828E+00  0.00000000E+00 -1.78134860E-06
  2.69892526E+00  0.00000000E+00 -1.57647531E-05  1.77196426E+00  0.00000000E+00
  6.74547497E-02  0.00000000E+00  0.00000000E+00  5.80356747E-02 -1.23627503E-06
 -3.34068090E-01  0.00000000E+00  0.00000000E+00 -3.34717320E-02  7.52796193E-06
  8.34856174E-01  0.00000000E+00  0.00000000E+00  1.28195436E+00 -1.98202012E-05
  0.00000000E+00  1.95685592E-06  4.45597767E-02  0.00000000E+00  0.00000000E+00
 -5.33609473E-07 -1.93257645E-01 -5.58799431E-01  1.05956996E+00 -4.55479305E-01
  8.72315046E-02 -3.49975797E-01  0.00000000E+00 -9.02325096E-02 -2.04147673E+00
  0.00000000E+00 -5.58814969E-01  1.05958498E+00 -4.55483908E-01 -8.72390281E-02
 -3.49975885E-01  0.00000000E+00  9.02561485E-02 -2.04153293E+00  0.00000000E+00
 -6.33094186E-07  1.52993723E-06 -3.45584696E-06 -4.24679056E-06 -6.24130892E-06
  2.55293462E-06 -5.42518854E-01  2.02655891E-06  0.00000000E+00  2.77772491E+00
 -2.36830252E-06  0.00000000E+00 -2.59366064E+00 -7.76187142E-06  0.00000000E+00
 -2.21488392E+00  3.57367728E-06  0.00000000E+00  4.15423994E-07  0.00000000E+00
  0.00000000E+00  9.28082822E-07  1.34638991E-01  2.25693630E-06  0.00000000E+00
  0.00000000E+00 -9.70529683E-06 -1.20491002E+00 -1.05863698E-05  0.00000000E+00
  0.00000000E+00  1.20466916E-05  1.15209072E+00  0.00000000E+00 -2.11866099E-01
 -2.09259111E-07  0.00000000E+00  0.00000000E+00 -1.08168542E-01  3.25642912E-06
 -7.71761884E-01  3.51378385E-02 -1.96765804E-01  7.35669649E-01 -6.61818053E-01
  0.00000000E+00  2.38846162E+00  5.76646939E-01  0.00000000E+00  7.71785829E-01
 -3.51741689E-02  1.96777287E-01  7.35672938E-01  6.61816788E-01  0.00000000E+00
  2.38848668E+00 -5.76647932E-01  0.00000000E+00 -2.21014069E-01  5.74523788E-01
 -2.86418253E+00  6.28370014E+00 -3.50363452E+00  5.09736835E+00 -9.31744378E-06
  3.97666760E-02  0.00000000E+00  6.76106148E-05 -9.22317632E-01  0.00000000E+00
  7.52785909E-05 -1.22263928E+00  0.00000000E+00  3.65777066E-06 -1.38629864E+00
  0.00000000E+00 -2.20718378E-02  0.00000000E+00  0.00000000E+00  5.90842821E-03
  5.87698313E-06 -4.20205928E-01  0.00000000E+00  0.00000000E+00  1.91326060E-01
 -4.82227952E-05 -6.36204503E-01  0.00000000E+00  0.00000000E+00  6.17313660E-02
 -4.13439954E-05  0.00000000E+00 -6.99496026E-06  1.48772891E-01  0.00000000E+00
  0.00000000E+00 -5.29872090E-06 -2.70515056E-01 -4.72345223E-01 -9.13893685E-01
 -2.26719956E+00  7.91147330E-01 -5.32356412E-01  0.00000000E+00 -3.58209951E-01
  5.66519796E-01  0.00000000E+00 -4.72345996E-01 -9.13649355E-01 -2.26725469E+00
 -7.91092340E-01 -5.32300978E-01  0.00000000E+00  3.58171056E-01  5.66518133E-01
  0.00000000E+00 -1.18781745E-06  2.69055186E-06  2.38576246E-05 -4.35139560E-05
 -4.26379052E-04  2.98788361E-04  4.03760224E-01 -2.26032808E-05  0.00000000E+00
 -3.97734127E+00  1.58223090E-04  0.00000000E+00 -3.97044711E+00  9.00074538E-05
  0.00000000E+00 -3.46169863E-01 -9.03728878E-05  0.00000000E+00 -1.10603980E-05
  0.00000000E+00  0.00000000E+00  8.25571198E-07 -2.35421138E-01  7.57086060E-05
  0.00000000E+00  0.00000000E+00 -8.04375513E-06  2.51123093E+00  8.40396787E-06
  0.00000000E+00  0.00000000E+00  1.06475985E-05  2.06561607E+00  0.00000000E+00
  4.06454060E-01 -1.38665781E-05  0.00000000E+00  0.00000000E+00  1.76633045E-01
  1.87143523E-05  3.04874379E-01  6.35711136E+00 -1.17417788E+00 -1.57573871E+00
  1.35571068E+00  0.00000000E+00  1.01157132E+00 -1.49801768E-01  0.00000000E+00
 -3.04895635E-01 -6.35653331E+00  1.17384976E+00 -1.57558733E+00 -1.35561046E+00
  0.00000000E+00  1.01163938E+00  1.49847782E-01  0.00000000E+00 -4.38613309E-02
  1.23565596E-01 -1.41571247E+00  3.72995803E+00  6.20896894E+00 -3.13251179E+00
  2.50132413E-05  3.48550298E-01  0.00000000E+00 -2.84013475E-04 -3.12040733E+00
  0.00000000E+00 -2.43505836E-04 -1.89703846E+00  0.00000000E+00 -1.33255811E-05
  1.01005333E+00  0.00000000E+00  1.57519391E-01  0.00000000E+00  0.00000000E+00
 -2.62995422E-02 -1.24356845E-05 -1.49019073E+00  0.00000000E+00  0.00000000E+00
  4.94445850E-01  1.59578080E-04 -4.34706722E-01  0.00000000E+00  0.00000000E+00
  1.00259265E-01  1.25036306E-04  0.00000000E+00  2.61832501E-05  2.70668536E-01
  0.00000000E+00  0.00000000E+00  7.80030853E-06 -4.52799003E-01 -1.72521978E-01
 -5.66357983E+00  1.90632450E+00  1.70833172E+00 -1.03450310E+00  0.00000000E+00
  3.53062136E-01 -2.18076700E-01  0.00000000E+00 -1.72581672E-01 -5.66440927E+00
  1.90649624E+00 -1.70854681E+00 -1.03466994E+00  0.00000000E+00 -3.52941536E-01
 -2.18051898E-01  0.00000000E+00  1.56876954E-01 -4.24293276E-01  2.29870143E+00
 -6.34674035E+00  1.23810585E+01  9.46908760E+00  1.29036945E-05 -1.91777702E-01
  0.00000000E+00 -4.21512915E-05  8.85114368E-01  0.00000000E+00  2.88321792E-04
 -3.43683065E+00  0.00000000E+00  3.52827386E-05 -7.79855797E-01  0.00000000E+00
  1.06635912E-02  0.00000000E+00  0.00000000E+00  4.07234367E-02  1.58002474E-06
  3.98465887E-02  0.00000000E+00  0.00000000E+00 -1.69619716E-01 -1.21141322E-05
 -7.04772193E-01  0.00000000E+00  0.00000000E+00  7.17525283E-01 -7.70664989E-05
  0.00000000E+00 -3.54274260E-06 -2.85034902E-03  0.00000000E+00  0.00000000E+00
  1.18213208E-06  2.48698204E-02  1.50726322E-01 -7.37094359E-01 -8.59931685E+00
 -9.24932612E-02  1.45706583E-01  0.00000000E+00  1.45127818E+00 -1.67240115E+00
  0.00000000E+00  1.50733131E-01 -7.36986735E-01 -8.59808772E+00  9.24967870E-02
  1.45727102E-01  0.00000000E+00 -1.45088668E+00 -1.67227490E+00  0.00000000E+00
 -7.20553723E-06  1.95249821E-05 -1.06435799E-04  2.95318505E-04 -6.17144229E-04
 -4.33780215E-04  3.20091544E-01  7.23665284E-06  0.00000000E+00 -1.22318666E+00
 -3.34067137E-05  0.00000000E+00  6.94461110E+00  1.42551211E-04  0.00000000E+00
  9.09886718E-01  3.24566585E-05  0.00000000E+00 -9.83478981E-07  0.00000000E+00
  0.00000000E+00 -1.15932018E-06  4.48558705E-02  5.59844234E-08  0.00000000E+00
  0.00000000E+00  4.63496855E-06 -1.92910033E-01  2.91417787E-05  0.00000000E+00
  0.00000000E+00 -3.51409825E-05 -1.64291464E+00  0.00000000E+00 -4.88736443E-02
  3.88068985E-07  0.00000000E+00  0.00000000E+00  3.65797659E-02 -1.73706430E-06
  4.63148075E-02 -1.26353337E+00 -1.43461258E+01 -5.81964322E-02 -1.64220996E-01
  0.00000000E+00  4.44436221E+00 -1.38874881E+00  0.00000000E+00 -4.63317279E-02
  1.26362537E+00  1.43469355E+01 -5.82026700E-02  1.64207536E-01  0.00000000E+00
  4.44451018E+00  1.38886061E+00  0.00000000E+00  0.00000000E+00  0.00000000E+00
  0.00000000E+00  0.00000000E+00  0.00000000E+00  0.00000000E+00  0.00000000E+00
  0.00000000E+00  8.56536792E-02  0.00000000E+00  0.00000000E+00  1.73283456E-01
  0.00000000E+00  0.00000000E+00  2.36211565E-01  0.00000000E+00  0.00000000E+00
  2.05449294E-01  0.00000000E+00 -1.62226818E-07 -1.82266685E-02  0.00000000E+00
  0.00000000E+00  0.00000000E+00 -3.09582304E-07 -4.58877684E-02  0.00000000E+00
  0.00000000E+00  0.00000000E+00 -2.07805136E-07 -6.43031621E-02  0.00000000E+00
  0.00000000E+00 -1.26788883E-02  0.00000000E+00  0.00000000E+00  4.35419147E-03
  5.32590164E-08  0.00000000E+00  0.00000000E+00  0.00000000E+00  0.00000000E+00
  0.00000000E+00  0.00000000E+00  0.00000000E+00  1.08700565E-01  0.00000000E+00
  0.00000000E+00  2.20131610E-01  0.00000000E+00  0.00000000E+00  0.00000000E+00
  0.00000000E+00  0.00000000E+00  1.08701060E-01  0.00000000E+00  0.00000000E+00
  2.20131812E-01  0.00000000E+00  0.00000000E+00  0.00000000E+00  0.00000000E+00
  0.00000000E+00  0.00000000E+00  0.00000000E+00  0.00000000E+00 -6.44868551E-07
  0.00000000E+00  0.00000000E+00 -5.79919182E-07  0.00000000E+00  0.00000000E+00
  3.00538810E-07  0.00000000E+00  0.00000000E+00  8.91493425E-07  0.00000000E+00
  2.36867854E-01  6.38942107E-08  0.00000000E+00  0.00000000E+00  0.00000000E+00
  3.89619591E-01 -1.44252473E-07  0.00000000E+00  0.00000000E+00  0.00000000E+00
  3.21720374E-01 -7.69538625E-07  0.00000000E+00  0.00000000E+00  3.71068115E-07
  0.00000000E+00  0.00000000E+00 -6.01837443E-07 -8.11318447E-02  0.00000000E+00
  0.00000000E+00  0.00000000E+00  0.00000000E+00  0.00000000E+00  0.00000000E+00
  0.00000000E+00  2.44820129E-01  0.00000000E+00  0.00000000E+00  9.85701350E-02
  0.00000000E+00  0.00000000E+00  0.00000000E+00  0.00000000E+00  0.00000000E+00
 -2.44821495E-01  0.00000000E+00  0.00000000E+00 -9.85684370E-02  0.00000000E+00
  0.00000000E+00  0.00000000E+00  0.00000000E+00  0.00000000E+00  0.00000000E+00
  0.00000000E+00  0.00000000E+00  2.99311173E-02  0.00000000E+00  0.00000000E+00
  4.73897592E-02  0.00000000E+00  0.00000000E+00  1.05244070E-01  0.00000000E+00
  0.00000000E+00  1.37499389E-01  0.00000000E+00  4.81401813E-07  3.38731917E-01
  0.00000000E+00  0.00000000E+00  0.00000000E+00  4.08033886E-07  4.66746475E-01
  0.00000000E+00  0.00000000E+00  0.00000000E+00 -3.53705326E-07  3.09371168E-01
  0.00000000E+00  0.00000000E+00  6.52159386E-02  0.00000000E+00  0.00000000E+00
 -2.23964970E-02  1.04468358E-07  0.00000000E+00  0.00000000E+00  0.00000000E+00
  0.00000000E+00  0.00000000E+00  0.00000000E+00  0.00000000E+00 -1.80580367E-01
  0.00000000E+00  0.00000000E+00  5.40207361E-02  0.00000000E+00  0.00000000E+00
  0.00000000E+00  0.00000000E+00  0.00000000E+00 -1.80579398E-01  0.00000000E+00
  0.00000000E+00  5.40218835E-02  0.00000000E+00  0.00000000E+00  0.00000000E+00
  0.00000000E+00  0.00000000E+00  0.00000000E+00  0.00000000E+00  0.00000000E+00
  5.00634744E-01  0.00000000E+00  0.00000000E+00  4.32620560E-01  0.00000000E+00
  0.00000000E+00  4.78296210E-02  0.00000000E+00  0.00000000E+00 -2.65622115E-01
  0.00000000E+00  1.38271659E-06  2.50760904E-02  0.00000000E+00  0.00000000E+00
  0.00000000E+00  1.67948342E-06  4.12043713E-02  0.00000000E+00  0.00000000E+00
  0.00000000E+00  1.76329238E-06  1.43543068E-01  0.00000000E+00  0.00000000E+00
 -7.87187883E-02  0.00000000E+00  0.00000000E+00  2.70336538E-02  3.01266483E-07
  0.00000000E+00  0.00000000E+00  0.00000000E+00  0.00000000E+00  0.00000000E+00
  0.00000000E+00  0.00000000E+00  1.31863882E-01  0.00000000E+00  0.00000000E+00
 -2.10733447E-01  0.00000000E+00  0.00000000E+00  0.00000000E+00  0.00000000E+00
  0.00000000E+00  1.31864252E-01  0.00000000E+00  0.00000000E+00 -2.10734057E-01
  0.00000000E+00  0.00000000E+00  0.00000000E+00  0.00000000E+00  0.00000000E+00
  0.00000000E+00  0.00000000E+00  0.00000000E+00  5.72144041E-07  0.00000000E+00
  0.00000000E+00  1.75641891E-07  0.00000000E+00  0.00000000E+00  4.26938088E-07
  0.00000000E+00  0.00000000E+00  1.16280128E-06  0.00000000E+00  5.55342295E-01
 -5.39386016E-06  0.00000000E+00  0.00000000E+00  0.00000000E+00  2.53556729E-01
 -2.29210119E-06  0.00000000E+00  0.00000000E+00  0.00000000E+00 -2.08733369E-01
  1.92848274E-06  0.00000000E+00  0.00000000E+00  5.16428667E-06  0.00000000E+00
  0.00000000E+00  1.84107232E-06  6.18161142E-01  0.00000000E+00  0.00000000E+00
  0.00000000E+00  0.00000000E+00  0.00000000E+00  0.00000000E+00  0.00000000E+00
 -1.92703609E-01  0.00000000E+00  0.00000000E+00 -9.47181461E-02  0.00000000E+00
  0.00000000E+00  0.00000000E+00  0.00000000E+00  0.00000000E+00  1.92698381E-01
  0.00000000E+00  0.00000000E+00  9.47186221E-02  0.00000000E+00  0.00000000E+00
  0.00000000E+00  0.00000000E+00  0.00000000E+00  0.00000000E+00  0.00000000E+00
  0.00000000E+00  1.85691547E-01  0.00000000E+00  0.00000000E+00  9.53897749E-02
  0.00000000E+00  0.00000000E+00  3.32424264E-02  0.00000000E+00  0.00000000E+00
  3.78174522E-02  0.00000000E+00 -3.11600656E-07 -3.26817261E-01  0.00000000E+00
  0.00000000E+00  0.00000000E+00 -1.00972682E-06 -1.35757510E-01  0.00000000E+00
  0.00000000E+00  0.00000000E+00 -5.28330735E-06  7.77631032E-02  0.00000000E+00
  0.00000000E+00  7.67120677E-01  0.00000000E+00  0.00000000E+00 -2.63445046E-01
 -1.16100845E-05  0.00000000E+00  0.00000000E+00  0.00000000E+00  0.00000000E+00
  0.00000000E+00  0.00000000E+00  0.00000000E+00 -2.07936311E-01  0.00000000E+00
  0.00000000E+00  1.89914871E-03  0.00000000E+00  0.00000000E+00  0.00000000E+00
  0.00000000E+00  0.00000000E+00 -2.07940863E-01  0.00000000E+00  0.00000000E+00
  1.90348538E-03  0.00000000E+00  0.00000000E+00  0.00000000E+00  0.00000000E+00
  0.00000000E+00  0.00000000E+00  0.00000000E+00  0.00000000E+00  1.96350589E-06
  0.00000000E+00  0.00000000E+00  8.12062809E-07  0.00000000E+00  0.00000000E+00
  5.25941106E-08  0.00000000E+00  0.00000000E+00  4.00968657E-07  0.00000000E+00
 -3.95961746E-01 -1.95616287E-06  0.00000000E+00  0.00000000E+00  0.00000000E+00
 -9.40335442E-02 -7.79938247E-07  0.00000000E+00  0.00000000E+00  0.00000000E+00
  5.59390679E-01 -8.03915797E-07  0.00000000E+00  0.00000000E+00  1.14145630E-05
  0.00000000E+00  0.00000000E+00 -4.48372270E-07  5.93710523E-01  0.00000000E+00
  0.00000000E+00  0.00000000E+00  0.00000000E+00  0.00000000E+00  0.00000000E+00
  0.00000000E+00 -9.19443711E-02  0.00000000E+00  0.00000000E+00  2.21407978E-01
  0.00000000E+00  0.00000000E+00  0.00000000E+00  0.00000000E+00  0.00000000E+00
  9.19396023E-02  0.00000000E+00  0.00000000E+00 -2.21407394E-01  0.00000000E+00
  0.00000000E+00  0.00000000E+00  0.00000000E+00  0.00000000E+00  0.00000000E+00
  0.00000000E+00  0.00000000E+00  1.21943747E-16  0.00000000E+00  0.00000000E+00
  2.82212527E-16  0.00000000E+00  0.00000000E+00 -1.76805020E-16  0.00000000E+00
  0.00000000E+00 -1.12723937E-15  0.00000000E+00  2.27121692E-16  3.69070467E-15
  0.00000000E+00  0.00000000E+00  0.00000000E+00  2.38677541E-17  8.69189629E-16
  0.00000000E+00  0.00000000E+00  0.00000000E+00 -1.89468821E-15 -2.16644297E-15
  0.00000000E+00  0.00000000E+00  3.24801139E-01  0.00000000E+00  0.00000000E+00
  9.45782332E-01 -5.53030534E-06  0.00000000E+00  0.00000000E+00  0.00000000E+00
  0.00000000E+00  0.00000000E+00  0.00000000E+00  0.00000000E+00  2.53789440E-15
  0.00000000E+00  0.00000000E+00 -5.79110992E-16  0.00000000E+00  0.00000000E+00
  0.00000000E+00  0.00000000E+00  0.00000000E+00  8.37191970E-16  0.00000000E+00
  0.00000000E+00  1.29247678E-16  0.00000000E+00  0.00000000E+00  0.00000000E+00
  0.00000000E+00  0.00000000E+00  0.00000000E+00  0.00000000E+00  0.00000000E+00
 -1.14790489E-01  0.00000000E+00  0.00000000E+00 -2.43123970E-02  0.00000000E+00
  0.00000000E+00  1.15683678E-01  0.00000000E+00  0.00000000E+00  1.88942907E-01
  0.00000000E+00 -3.37924620E-06 -6.18720581E-01  0.00000000E+00  0.00000000E+00
  0.00000000E+00 -3.59738573E-07 -6.02782504E-02  0.00000000E+00  0.00000000E+00
  0.00000000E+00  4.07092010E-06  6.93570750E-01  0.00000000E+00  0.00000000E+00
 -3.15499319E-01  0.00000000E+00  0.00000000E+00  1.08348966E-01 -1.63158274E-06
  0.00000000E+00  0.00000000E+00  0.00000000E+00  0.00000000E+00  0.00000000E+00
  0.00000000E+00  0.00000000E+00 -4.57509554E-02  0.00000000E+00  0.00000000E+00
 -3.64981364E-02  0.00000000E+00  0.00000000E+00  0.00000000E+00  0.00000000E+00
  0.00000000E+00 -4.57504249E-02  0.00000000E+00  0.00000000E+00 -3.64989825E-02
  0.00000000E+00  0.00000000E+00  0.00000000E+00  0.00000000E+00  0.00000000E+00
  0.00000000E+00  0.00000000E+00  0.00000000E+00  7.02267195E-01  0.00000000E+00
  0.00000000E+00 -1.64165763E-01  0.00000000E+00  0.00000000E+00 -3.04203215E-01
  0.00000000E+00  0.00000000E+00  2.15697464E-01  0.00000000E+00  2.23799434E-06
 -2.58067540E-01  0.00000000E+00  0.00000000E+00  0.00000000E+00 -1.44166845E-06
  7.92232959E-02  0.00000000E+00  0.00000000E+00  0.00000000E+00  3.72970142E-06
 -3.76105877E-01  0.00000000E+00  0.00000000E+00 -4.11514217E-01  0.00000000E+00
  0.00000000E+00  1.41322461E-01 -5.56407889E-06  0.00000000E+00  0.00000000E+00
  0.00000000E+00  0.00000000E+00  0.00000000E+00  0.00000000E+00  0.00000000E+00
 -4.69390104E-01  0.00000000E+00  0.00000000E+00  1.51720575E-01  0.00000000E+00
  0.00000000E+00  0.00000000E+00  0.00000000E+00  0.00000000E+00 -4.69378461E-01
  0.00000000E+00  0.00000000E+00  1.51714842E-01  0.00000000E+00  0.00000000E+00
  0.00000000E+00  0.00000000E+00  0.00000000E+00  0.00000000E+00  0.00000000E+00
  0.00000000E+00 -8.82878378E-06  0.00000000E+00  0.00000000E+00  2.58254005E-06
  0.00000000E+00  0.00000000E+00  3.35788773E-06  0.00000000E+00  0.00000000E+00
 -2.71865139E-06  0.00000000E+00  6.18113191E-01  2.41493053E-06  0.00000000E+00
  0.00000000E+00  0.00000000E+00 -3.56605700E-01 -7.22854868E-07  0.00000000E+00
  0.00000000E+00  0.00000000E+00  5.02082134E-01  1.28061980E-06  0.00000000E+00
  0.00000000E+00  3.32796495E-06  0.00000000E+00  0.00000000E+00 -4.00793828E-06
 -4.89974827E-01  0.00000000E+00  0.00000000E+00  0.00000000E+00  0.00000000E+00
  0.00000000E+00  0.00000000E+00  0.00000000E+00 -5.37623510E-01  0.00000000E+00
  0.00000000E+00  2.76408805E-01  0.00000000E+00  0.00000000E+00  0.00000000E+00
  0.00000000E+00  0.00000000E+00  5.37629215E-01  0.00000000E+00  0.00000000E+00
 -2.76411001E-01  0.00000000E+00  0.00000000E+00  0.00000000E+00  0.00000000E+00
  0.00000000E+00  0.00000000E+00  0.00000000E+00  0.00000000E+00 -5.11555674E-01
  0.00000000E+00  0.00000000E+00  4.72782448E-01  0.00000000E+00  0.00000000E+00
  3.93515824E-01  0.00000000E+00  0.00000000E+00 -5.93061670E-01  0.00000000E+00
 -3.86387588E-06 -6.62145863E-01  0.00000000E+00  0.00000000E+00  0.00000000E+00
  4.32839583E-06  7.84964639E-01  0.00000000E+00  0.00000000E+00  0.00000000E+00
 -1.84227233E-06 -5.66545032E-01  0.00000000E+00  0.00000000E+00 -1.00491391E-01
  0.00000000E+00  0.00000000E+00  3.45108142E-02 -2.81512563E-07  0.00000000E+00
  0.00000000E+00  0.00000000E+00  0.00000000E+00  0.00000000E+00  0.00000000E+00
  0.00000000E+00 -1.91118716E-01  0.00000000E+00  0.00000000E+00  4.18570778E-02
  0.00000000E+00  0.00000000E+00  0.00000000E+00  0.00000000E+00  0.00000000E+00
 -1.91117311E-01  0.00000000E+00  0.00000000E+00  4.18576586E-02  0.00000000E+00
  0.00000000E+00  0.00000000E+00  0.00000000E+00  0.00000000E+00  0.00000000E+00
  0.00000000E+00  0.00000000E+00 -3.59013345E-05  0.00000000E+00  0.00000000E+00
  5.11573642E-05  0.00000000E+00  0.00000000E+00  4.98751539E-05  0.00000000E+00
  0.00000000E+00 -2.24647549E-05  0.00000000E+00 -7.06353888E-01  5.20962127E-05
  0.00000000E+00  0.00000000E+00  0.00000000E+00  1.31591921E+00 -9.48835349E-05
  0.00000000E+00  0.00000000E+00  0.00000000E+00  4.79341342E-02  5.17561962E-06
  0.00000000E+00  0.00000000E+00 -2.69659973E-05  0.00000000E+00  0.00000000E+00
  6.92340157E-06 -3.99716766E-01  0.00000000E+00  0.00000000E+00  0.00000000E+00
  0.00000000E+00  0.00000000E+00  0.00000000E+00  0.00000000E+00 -7.30648777E-01
  0.00000000E+00  0.00000000E+00 -1.80192320E-01  0.00000000E+00  0.00000000E+00
  0.00000000E+00  0.00000000E+00  0.00000000E+00  7.30521246E-01  0.00000000E+00
  0.00000000E+00  1.80180462E-01  0.00000000E+00  0.00000000E+00  0.00000000E+00
  0.00000000E+00  0.00000000E+00  0.00000000E+00  0.00000000E+00  0.00000000E+00
  3.86447889E-01  0.00000000E+00  0.00000000E+00 -5.99880933E-01  0.00000000E+00
  0.00000000E+00 -6.07856024E-01  0.00000000E+00  0.00000000E+00  2.93241127E-01
  0.00000000E+00 -6.08213962E-05 -5.48294148E-01  0.00000000E+00  0.00000000E+00
  0.00000000E+00  1.20065453E-04  1.05632416E+00  0.00000000E+00  0.00000000E+00
  0.00000000E+00  4.33772038E-06 -5.52437133E-02  0.00000000E+00  0.00000000E+00
  3.32874606E-01  0.00000000E+00  0.00000000E+00 -1.14315998E-01 -3.67701646E-05
  0.00000000E+00  0.00000000E+00  0.00000000E+00  0.00000000E+00  0.00000000E+00
  0.00000000E+00  0.00000000E+00  7.75645382E-01  0.00000000E+00  0.00000000E+00
  5.71976289E-02  0.00000000E+00  0.00000000E+00  0.00000000E+00  0.00000000E+00
  0.00000000E+00  7.75780414E-01  0.00000000E+00  0.00000000E+00  5.72276142E-02
  0.00000000E+00  0.00000000E+00  0.00000000E+00  0.00000000E+00  0.00000000E+00
  0.00000000E+00  0.00000000E+00  0.00000000E+00 -7.36469524E-01  0.00000000E+00
  0.00000000E+00  1.57535835E+00  0.00000000E+00  0.00000000E+00 -1.33970295E+00
  0.00000000E+00  0.00000000E+00  1.43827431E+00  0.00000000E+00  7.51604315E-07
 -3.96730204E-02  0.00000000E+00  0.00000000E+00  0.00000000E+00 -2.39660496E-06
  8.15092848E-02  0.00000000E+00  0.00000000E+00  0.00000000E+00 -1.86551041E-06
 -3.27238848E-01  0.00000000E+00  0.00000000E+00 -2.07820882E-02  0.00000000E+00
  0.00000000E+00  7.13699729E-03  1.15632955E-06  0.00000000E+00  0.00000000E+00
  0.00000000E+00  0.00000000E+00  0.00000000E+00  0.00000000E+00  0.00000000E+00
 -4.73594611E-02  0.00000000E+00  0.00000000E+00 -4.47377839E-01  0.00000000E+00
  0.00000000E+00  0.00000000E+00  0.00000000E+00  0.00000000E+00 -4.73644963E-02
  0.00000000E+00  0.00000000E+00 -4.47380330E-01  0.00000000E+00  0.00000000E+00
  0.00000000E+00  0.00000000E+00  0.00000000E+00  0.00000000E+00  0.00000000E+00
  0.00000000E+00 -2.48479042E-06  0.00000000E+00  0.00000000E+00  6.92275061E-06
  0.00000000E+00  0.00000000E+00 -1.31923714E-05  0.00000000E+00  0.00000000E+00
 -1.39902239E-05  0.00000000E+00 -2.20405879E-01  1.85635854E-06  0.00000000E+00
  0.00000000E+00  0.00000000E+00  5.77085873E-01 -4.74020852E-06  0.00000000E+00
  0.00000000E+00  0.00000000E+00 -1.94261609E+00  1.64507080E-05  0.00000000E+00
  0.00000000E+00  2.58106146E-07  0.00000000E+00  0.00000000E+00 -1.20236893E-08
  1.31026000E-02  0.00000000E+00  0.00000000E+00  0.00000000E+00  0.00000000E+00
  0.00000000E+00  0.00000000E+00  0.00000000E+00 -2.13829157E-02  0.00000000E+00
  0.00000000E+00  2.35305599E+00  0.00000000E+00  0.00000000E+00  0.00000000E+00
  0.00000000E+00  0.00000000E+00  2.13833787E-02  0.00000000E+00  0.00000000E+00
 -2.35302859E+00  0.00000000E+00  0.00000000E+00  0.00000000E+00  0.00000000E+00
  0.00000000E+00  0.00000000E+00  0.00000000E+00  0.00000000E+00  3.58094979E-01
  0.00000000E+00  0.00000000E+00 -1.14793285E+00  0.00000000E+00  0.00000000E+00
  2.76854876E+00  0.00000000E+00  0.00000000E+00  2.23990139E+00  0.00000000E+00
 -2.01887542E-06 -1.26914307E-01  0.00000000E+00  0.00000000E+00  0.00000000E+00
  5.56360966E-06  3.45559746E-01  0.00000000E+00  0.00000000E+00  0.00000000E+00
 -2.14288484E-05 -1.39529697E+00  0.00000000E+00  0.00000000E+00 -2.50397268E-02
  0.00000000E+00  0.00000000E+00  8.59915809E-03 -3.57235395E-09  0.00000000E+00
  0.00000000E+00  0.00000000E+00  0.00000000E+00  0.00000000E+00  0.00000000E+00
  0.00000000E+00 -2.51520523E-02  0.00000000E+00  0.00000000E+00 -2.30988474E+00
  0.00000000E+00  0.00000000E+00  0.00000000E+00  0.00000000E+00  0.00000000E+00
 -2.51513144E-02  0.00000000E+00  0.00000000E+00 -2.30993554E+00
Total SCF Density                          R   N=        1711
  4.00643278E-01  6.07844588E-01  9.38431278E-01 -4.40407182E-02 -1.30829093E-01
  2.57385161E-01 -1.23617487E-01 -2.71921642E-01  3.46654674E-01  4.78702125E-01
 -2.53283326E-02 -7.61903060E-02  1.52769657E-01  2.12368378E-01  1.25731127E-01
  4.20721987E-03  4.28670133E-03  8.02009642E-03  1.13171918E-02  1.21926534E-02
  1.90008079E-03 -2.33513013E-08 -5.15158964E-08 -4.95837526E-09  6.39834196E-07
  8.75960587E-07  1.84885572E-07  2.95457478E-01 -1.52513488E-02 -3.56704847E-02
  5.42610519E-02  9.52555114E-02  1.42348031E-01  2.49255364E-02  5.90930271E-07
  3.57680509E-01 -1.92569449E-18 -4.50389375E-18  6.85120844E-18  1.20273449E-17
  1.79734340E-17  3.14719922E-18  4.33747332E-18  9.82949149E-17  4.42694337E-01
 -5.55547308E-08 -1.35729486E-07  1.50770865E-07  7.02575992E-07  7.12207876E-07
  1.35571282E-07  2.33914429E-01  2.70935326E-07  3.19953644E-18  1.85190642E-01
 -7.86557320E-03 -2.16851513E-02  4.19009046E-02  7.38287673E-02  1.14666373E-01
  2.03058166E-02  2.79582461E-07  2.91026789E-01  8.17412795E-17  5.93138017E-08
  2.36858460E-01 -9.93139064E-19 -2.73805434E-18  5.29057335E-18  9.32192383E-18
  1.44782369E-17  2.56389425E-18  3.19953753E-18  8.17412792E-17  3.74892484E-01
  2.33453845E-18  6.80104437E-17  3.17474976E-01 -9.92229438E-08 -2.10719270E-07
  2.23171726E-07  5.35146427E-07  4.34358088E-07  6.97827441E-08  1.03893027E-01
  2.33854662E-07  2.95924366E-19  8.22523711E-02  1.16962141E-07  8.40597762E-20
  3.65323673E-02 -1.66513664E-02 -3.73113537E-02  5.09116949E-02  8.03000308E-02
  8.44074001E-02  1.29489264E-02  1.96364138E-07  1.81190101E-01  5.69240515E-17
  7.32532829E-08  1.47160898E-01  4.74129538E-17  1.03698660E-07  9.40514070E-02
 -2.10246829E-18 -4.71108079E-18  6.42831241E-18  1.01390055E-17  1.06576148E-17
  1.63498315E-18  2.95919633E-19  5.69240526E-17  2.83668535E-01  8.40542573E-20
  4.74129551E-17  2.40222639E-01 -6.83637494E-19  3.36913874E-17  1.81768392E-01
 -8.18736948E-09 -1.58214251E-08  1.29476397E-08  3.03858584E-08  2.34148996E-08
  3.63826637E-09  5.58032072E-03  1.12958221E-08 -2.02727934E-19  4.41795395E-03
  5.21377732E-09 -1.80623991E-19  1.96223300E-03  5.07202182E-09 -1.76808093E-19
  1.05395807E-04 -2.45593161E-03 -5.56059204E-03  7.70883919E-03  1.19249212E-02
  1.16215396E-02  1.71619603E-03  3.70223569E-08  2.37913148E-02  7.56491803E-18
  1.92782792E-08  1.93128027E-02  6.30090318E-18  1.84893013E-08  1.24470032E-02
  4.49415062E-18  9.33143066E-10  1.65139876E-03 -3.10095586E-19 -7.02102144E-19
  9.73347988E-19  1.50568719E-18  1.46738085E-18  2.16693601E-19 -2.02724685E-19
  7.56491728E-18  3.80010158E-02 -1.80622215E-19  6.30090277E-18  3.21808842E-02
 -1.76806399E-19  4.49415023E-18  2.43501929E-02 -2.82632871E-20  6.00023947E-19
  3.26201868E-03  3.08736893E-04  8.51197368E-04 -1.49848872E-03 -1.71888970E-03
  7.10513279E-04  2.92731052E-04  4.52213710E-08  4.71063410E-03  2.15946907E-19
  3.15640715E-08  3.85425460E-03  1.65838408E-19  1.42632539E-08  2.17642614E-03
  3.20540425E-20  7.38251726E-10  2.76648530E-04  2.41123136E-21  8.17458123E-05
 -1.90430937E-20 -5.07972612E-20  8.78609022E-20  1.14561676E-19  2.91414954E-20
 -2.18815640E-21 -1.13771808E-18 -5.36879250E-20 -4.21461423E-08 -9.00734139E-19
 -4.46047237E-20 -3.56911545E-08 -4.00060669E-19 -1.81040354E-20 -2.70062964E-08
 -2.14881081E-20 -1.98139940E-21 -3.61783760E-09 -1.56172394E-21  4.01246903E-15
  6.56141313E-20  1.73495436E-19 -2.98633666E-19 -4.02411676E-19 -1.65933331E-19
 -6.70946453E-21 -2.14368390E-19 -6.22037711E-19 -4.95193320E-03 -1.67093918E-19
 -5.23030915E-19 -4.19350866E-03 -6.16289319E-20 -4.22744183E-19 -3.17308698E-03
 -8.64736577E-22 -5.77343097E-20 -4.25075444E-04  6.49342653E-21  4.71442402E-10
  5.53918141E-05 -3.59036041E-04 -9.31227686E-04  1.58555322E-03  2.29279759E-03
  1.68382710E-03  2.05433782E-04 -6.69835230E-08  2.67013659E-03  9.31477994E-19
 -5.36247161E-08  2.16139964E-03  7.76216083E-19 -2.23058457E-08  1.46420049E-03
  5.65713454E-19 -1.20175007E-09  1.97120818E-04  7.59073710E-20  2.46631168E-05
  5.49701732E-23 -8.25176682E-21  2.55318216E-05 -5.25146799E-09 -1.19052720E-08
  1.80661321E-08  3.65716123E-09 -2.35288184E-08 -6.69681943E-09 -9.01061859E-03
 -3.75863160E-08 -2.14389622E-19 -7.13372941E-03 -2.46686876E-08 -1.67110161E-19
 -3.16844389E-03 -1.38940295E-08 -6.16376809E-20 -1.70184021E-04 -2.08047583E-09
 -8.65633717E-22 -1.82344826E-09  3.46972067E-20  7.45604159E-21  1.99609735E-09
  2.74798417E-04  2.16892807E-03  4.52437876E-03 -4.99643390E-03 -6.20639507E-03
  8.71377204E-04  6.74672070E-04  2.03454641E-08  1.09756420E-02 -1.52433118E-19
  5.07438481E-09  9.00658263E-03 -1.65458805E-19  1.84146996E-09  4.91427182E-03
 -3.65187651E-19  1.87532116E-11  6.17519262E-04 -5.40743845E-20  2.04256937E-04
 -4.23429977E-21  2.42874099E-20  5.01890130E-05 -1.79194072E-09  5.20786561E-04
 -1.21142432E-19 -2.61883377E-19  3.22122310E-19  4.49497031E-19  2.16293299E-19
  1.44425337E-20 -2.60232324E-18  1.48219349E-19 -9.68186506E-08 -2.06026567E-18
  1.17210486E-19 -8.19901710E-08 -9.15065944E-19  1.04076318E-19 -6.20392052E-08
 -4.91501352E-20  1.49131097E-20 -8.31094224E-09 -7.32407266E-22  9.21749453E-15
  1.08300344E-09  2.53453808E-21  7.93635444E-20 -3.71248772E-21  2.11745449E-14
  4.06096160E-19  8.86992402E-19 -1.12250513E-18 -1.60879749E-18 -9.87777985E-19
 -1.00098493E-19 -4.06019015E-19 -3.66493231E-18 -2.01072604E-02 -3.10798556E-19
 -3.05157512E-18 -1.70276874E-02 -8.69369076E-20 -2.27061180E-18 -1.28842784E-02
  5.26030409E-21 -3.06134655E-19 -1.72601331E-03  9.07642051E-21  1.91428574E-09
  2.24917741E-04 -4.07809497E-20  1.61117130E-20  5.71569320E-20  4.39752139E-09
  9.13275561E-04 -2.08783186E-03 -4.67103286E-03  6.29068105E-03  9.51256525E-03
  8.27644709E-03  1.14377556E-03 -7.71992135E-08  1.56230256E-02  4.38592292E-18
 -6.67867527E-08  1.26681809E-02  3.64321847E-18 -2.24275225E-08  8.29249526E-03
  2.59343106E-18 -1.23645723E-09  1.10515463E-03  3.46699603E-19  1.70659014E-04
 -8.23700155E-22 -3.28673036E-20  1.35296454E-04  1.83483500E-09  3.71617027E-04
  1.13157378E-20 -1.79340325E-19  7.45577220E-04  3.39440358E-08  7.29463730E-08
 -8.32246243E-08 -1.58987376E-07 -1.04705820E-07 -1.39827952E-08 -2.06101876E-02
 -4.03712217E-08 -4.06046817E-19 -1.63171374E-02 -1.78612302E-08 -3.10819418E-19
 -7.24725196E-03 -2.13695953E-08 -8.69500046E-20 -3.89265683E-04 -3.93843873E-09
  5.25865197E-21 -2.39336170E-09  7.93636242E-20  1.61112650E-20  4.28012559E-09
  6.28552511E-04  9.15644247E-10  1.81529832E-19  3.30229410E-20  4.06954411E-09
  1.43770209E-03 -1.35192905E-03 -2.92057037E-03  3.63502715E-03  5.39376613E-03
  4.12329387E-03  5.19370862E-04  1.64144965E-08  6.95934041E-03 -1.03674830E-18
  1.10979816E-08  5.63258210E-03 -9.10903160E-19  8.65031801E-09  3.77581972E-03
 -7.50634934E-19  4.56256462E-10  5.06541502E-04 -1.00465933E-19  6.85234043E-05
 -4.21531413E-23  1.78152173E-20  6.42483563E-05 -6.59844664E-10  1.42178560E-04
  6.08885406E-21  5.26814200E-20  3.45775239E-04 -2.02402481E-09  1.63096305E-04
  1.03275119E-20  1.90220198E-22  6.42343133E-20  1.12037611E-19  1.88925617E-19
  3.42188944E-20 -4.79215556E-19  4.86947471E-19 -1.05595550E-07 -3.79396382E-19
  3.96604315E-19 -8.94228241E-08 -1.68508381E-19  2.45389862E-19 -6.76632439E-08
 -9.05090191E-21  3.21741145E-20 -9.06435391E-09  6.50931008E-21  1.00530879E-14
  1.18118093E-09  3.58597133E-21  1.46147128E-20  1.53148429E-20  2.30940804E-14
  4.79616980E-09  2.10603261E-20  3.34286057E-20  9.32863734E-21  2.51876276E-14
  3.00103473E-20  1.60913781E-19 -4.80316082E-19 -7.85357661E-19 -1.04896959E-18
 -1.77396847E-19  1.30118667E-19 -5.50564021E-18 -2.50378293E-02  1.16275276E-19
 -4.57949139E-18 -2.12031039E-02  1.15279575E-19 -3.20059750E-18 -1.60436757E-02
  1.85567402E-20 -4.25764812E-19 -2.14925484E-03 -1.06422962E-20  2.38369419E-09
  2.80070576E-04 -5.27486486E-20  6.75640503E-22  1.26069595E-20  5.47585240E-09
  1.13722293E-03 -2.47119408E-19 -3.22413454E-21  5.87842059E-20  5.97225472E-09
  1.41608519E-03 -9.41034976E-04 -2.79388100E-03  5.69522257E-03  9.02612607E-03
  1.04529331E-02  1.67517538E-03  4.93376939E-08  2.34249318E-02  5.96279898E-18
  2.77362142E-08  1.90447864E-02  4.94949521E-18  2.08989672E-08  1.20624062E-02
  3.44863100E-18  1.04670657E-09  1.59256063E-03  4.59039460E-19  2.89629670E-04
 -2.69644495E-21 -3.79433368E-20  1.84967055E-04 -2.60996885E-09  6.63161590E-04
  1.22140857E-20 -2.26270138E-19  1.05605999E-03 -4.08597190E-09  4.77285439E-04
  3.18392630E-20 -3.34692657E-19  1.55297673E-03  9.36494921E-09  2.62060135E-08
 -4.87778608E-08 -8.30562022E-08 -8.66940570E-08 -1.37209905E-08 -3.79536659E-03
 -1.63875030E-07  1.30090453E-19 -3.00480128E-03 -1.30544365E-07  1.16250834E-19
 -1.33458164E-03 -8.40311306E-08  1.15262914E-19 -7.16832857E-05 -1.12809709E-08
  1.85543301E-20 -2.41655210E-09  1.46148138E-20  6.75104906E-22 -4.25091903E-10
  1.15747961E-04 -4.39206123E-09  3.34286029E-20 -3.22410139E-21 -6.22657428E-09
  2.64752878E-04 -3.50896649E-09  6.15561673E-21 -1.21804044E-20 -1.10869600E-08
  4.87542494E-05 -2.63197559E-20 -5.35789288E-20  5.44726288E-20  6.08863352E-20
 -4.69941428E-20 -1.53297128E-20 -1.63903329E-19 -8.46020710E-19 -5.07074581E-03
 -1.27077283E-19 -7.09608062E-19 -4.29412426E-03 -4.35534254E-20 -5.01468317E-19
 -3.24921942E-03  1.64816058E-22 -6.65046944E-20 -4.35274354E-04  4.01128946E-22
  4.82753803E-10  5.67208398E-05 -8.14874874E-21  5.93907997E-21  7.83241726E-21
  1.10898814E-09  2.30314232E-04 -3.65475146E-20  1.26186211E-20  1.82912611E-20
  1.20952121E-09  2.86790360E-04 -4.92148525E-20 -2.29761350E-23  5.80817530E-05
 -1.63676888E-09 -4.39654148E-09  8.72807718E-09  3.04345401E-09 -6.25754317E-09
 -2.14190503E-09 -4.07802514E-03 -4.14281500E-09  1.55202316E-19 -3.22858276E-03
 -6.70690056E-10  1.37969028E-19 -1.43397412E-03  8.52996521E-11  1.33727559E-19
 -7.70218723E-05 -1.10726984E-10  2.12597613E-20 -6.42973482E-10  1.57032329E-20
  5.53046434E-22  9.92692630E-10  1.24368249E-04 -3.74612196E-10  3.59182957E-20
 -4.16449604E-21  1.36837870E-09  2.84470252E-04 -6.44303257E-11  6.61428321E-21
 -1.39598396E-20 -3.49398856E-10  5.23852043E-05 -2.01204326E-22  5.62865733E-05
 -3.87209262E-04 -7.88238162E-04  8.01382760E-04  8.95744171E-04 -6.91362796E-04
 -2.25525753E-04 -4.64347452E-09 -3.49290952E-03 -8.84808542E-19 -7.55608927E-10
 -2.85734172E-03 -7.36591032E-19 -6.64541037E-10 -1.64025381E-03 -4.91469123E-19
 -1.50157653E-11 -2.09826218E-04 -6.45876947E-20 -5.79371320E-05  1.04142790E-21
  3.64933550E-21 -1.97297139E-05  4.46880845E-10 -1.43987619E-04  2.05051710E-22
  2.72395116E-20 -1.31007595E-04 -1.46218265E-10 -5.36829299E-05 -4.83027176E-21
  4.90533923E-20 -2.17643878E-04  1.45298482E-09  7.90219112E-21  6.82650001E-11
  4.14725640E-05  1.83450855E-19  3.85448506E-19 -4.35727375E-19 -5.57031099E-19
 -1.08897107E-20  4.03657332E-20  7.96593540E-20  8.58391255E-19  1.45077388E-03
  6.22974778E-20  7.10375426E-19  1.22857732E-03  2.39819851E-20  4.05922135E-19
  9.29623146E-04  5.71661022E-22  5.13488053E-20  1.24534869E-04  1.26058957E-20
 -1.38119053E-10 -1.62282070E-05  4.48479546E-21 -2.69854384E-21  3.08544980E-20
 -3.17288833E-10 -6.58944236E-05  2.90686408E-20 -5.89571202E-21  1.25723248E-21
 -3.46052011E-10 -8.20526168E-05  5.01535924E-20 -4.14541490E-22 -1.66175733E-05
 -3.94687172E-22 -1.11167513E-20  4.75439752E-06  4.05231183E-20  8.52549478E-20
 -9.67717147E-20 -1.24282061E-19 -5.56205149E-21  8.29641510E-21 -4.84784069E-19
  1.42101262E-19  4.58100392E-09 -3.83804937E-19  1.16972769E-19  3.87938989E-09
 -1.70466890E-19  6.05188123E-20  2.93540387E-09 -9.15615132E-21  7.45353321E-21
  3.93234762E-10  2.93191238E-21 -4.36128559E-16 -5.12426374E-11  4.97051157E-22
  1.47845261E-20  7.62771957E-21 -1.00188003E-15 -2.08070063E-10  4.29286856E-21
  3.38170575E-20  1.49740300E-21 -1.09270344E-15 -2.59091623E-10  8.31762831E-21
  6.22735625E-21 -5.24721111E-11  6.69118826E-21 -2.04126228E-21  1.50126177E-11
  4.74042588E-17  7.88389452E-09  1.64507791E-08 -1.85696261E-08 -2.50161828E-08
 -8.57758490E-09  3.14516150E-12  1.84309092E-04  2.31039959E-09 -1.17065684E-20
  1.45917972E-04  1.97568390E-09 -1.02090513E-20  6.48094257E-05 -7.28513203E-10
 -9.05075908E-21  3.48105538E-06 -1.67355558E-10 -1.36366488E-21  2.23021188E-10
 -7.09725248E-22  2.75148659E-23 -1.17235625E-10 -5.62090673E-06  5.95221410E-10
 -1.62337269E-21  4.01409443E-22 -2.69525750E-10 -1.28568246E-05 -1.54880243E-10
 -2.98931897E-22  8.96305733E-22  9.35956279E-13 -2.36758458E-06  6.28328312E-23
 -2.54390958E-06 -1.26479809E-10  2.50620458E-24 -3.02402852E-22  1.14973708E-07
  9.06139965E-04  1.92221515E-03 -2.23783637E-03 -2.95398340E-03 -5.70643696E-04
  9.78525076E-05  1.85928108E-08  1.89763219E-03  4.52860136E-19  1.17834361E-08
  1.57278399E-03  3.79181458E-19  4.36030784E-09  7.16643153E-04  2.27136688E-19
  2.11904871E-10  8.35798892E-05  2.88591926E-20  4.76257631E-05 -1.26564083E-21
  4.73961961E-22  2.13116074E-06 -8.87256622E-10  1.27941834E-04 -2.34398084E-21
 -6.59030045E-21  4.20440158E-05 -4.17676148E-10  9.88092341E-06  2.72345275E-21
 -2.44384715E-20  1.03166203E-04 -8.15804264E-10 -4.65020789E-21 -3.17575906E-10
 -3.24759996E-05  9.97399907E-21  1.99181021E-21  2.20019874E-10  3.64808001E-05
 -1.12421484E-02 -2.68961971E-02  3.91969669E-02  4.77351125E-02 -6.87518110E-03
 -5.22168590E-03  1.13005586E-01 -8.63530070E-02 -7.61821855E-18  8.94668932E-02
 -7.07985673E-02 -6.33851908E-18  3.97366977E-02 -3.87485644E-02 -3.73740679E-18
  2.13434515E-03 -4.87146759E-03 -5.53045321E-19 -1.60395770E-03 -4.01957282E-19
 -1.55530865E-19 -3.96137653E-04 -3.44634203E-03 -4.07189252E-03 -9.67209275E-19
 -1.25815534E-19 -2.93689098E-03 -7.88293354E-03 -1.12899262E-03 -3.03339684E-19
  5.41772711E-19 -5.21237445E-03 -1.45160661E-03 -4.66729131E-21 -1.55974866E-03
  1.12762039E-03 -2.44568165E-19 -2.44982528E-19  7.04894202E-05 -9.97122513E-04
  7.51436702E-02 -4.78566909E-03 -1.14058376E-02  1.58128471E-02  1.44437327E-02
 -2.79999758E-02 -7.45037193E-03  1.39544080E-01 -1.14103889E-01 -1.03506842E-17
  1.10477487E-01 -9.31831834E-02 -8.55411401E-18  4.90685272E-02 -5.46352805E-02
 -5.47205062E-18  2.63557802E-03 -7.03679119E-03 -8.11876675E-19 -1.79838810E-03
 -5.07400059E-19 -1.54170277E-19 -6.94404781E-04 -4.25569126E-03 -4.40281345E-03
 -1.23585375E-18 -9.71695587E-21 -4.45475882E-03 -9.73416924E-03 -1.87070179E-03
 -3.83268563E-19  7.33150597E-19 -7.19243963E-03 -1.79249885E-03 -1.24184496E-20
 -1.92604476E-03  1.29452612E-03 -2.47088434E-19 -2.90305009E-19  8.70457030E-05
 -9.47018329E-04  8.79368180E-02  1.06753197E-01 -6.12207280E-03 -7.44714751E-03
 -6.93706971E-03 -1.04833532E-02 -1.62702556E-02 -2.88943409E-03  1.71274141E-02
 -3.94934629E-02 -4.48870661E-18  1.35598382E-02 -3.22097852E-02 -3.67275004E-18
  6.02258616E-03 -1.99937414E-02 -2.34941146E-18  3.23486407E-04 -2.62719361E-03
 -3.22315878E-19 -5.14539656E-04 -6.02833508E-20 -1.13139174E-20 -2.98347531E-04
 -5.22335607E-04 -1.21742306E-03 -1.67049516E-19  1.03026311E-19 -1.72440826E-03
 -1.19475487E-03 -7.65579790E-04 -8.21086348E-20  2.71983886E-19 -2.60304377E-03
 -2.19996726E-04  1.39787530E-20 -2.36400050E-04  3.86964742E-04 -7.05580553E-20
 -4.38859724E-20  1.06839979E-05 -2.11370271E-04  1.60120069E-02  2.06455552E-02
  5.51855277E-03  1.07789490E-03  3.09978740E-03 -5.75037644E-03 -6.77771146E-03
  1.69214759E-03  9.02887170E-04 -5.93423771E-03  1.48286209E-02  1.47305956E-18
 -4.69816503E-03  1.21414396E-02  1.20442682E-18 -2.08668847E-03  6.75488838E-03
  6.46940915E-19 -1.12080673E-04  8.53989771E-04  8.51053886E-20  2.66481568E-04
  1.75380252E-20  1.61167880E-20  7.27509696E-05  1.80976004E-04  6.70347782E-04
  4.87313462E-20  5.73112345E-22  5.21091150E-04  4.13956563E-04  2.05114564E-04
  3.01506656E-20 -8.54731750E-20  9.02773403E-04  7.62239334E-05 -5.90120286E-21
  8.19066870E-05 -1.87848077E-04  4.31840426E-20  1.94526344E-20 -3.70114140E-06
  1.60299327E-04 -7.53470097E-03 -8.60061915E-03 -1.95845253E-03  9.91164013E-04
 -1.82183682E-03 -4.72972194E-03  7.99447151E-03  1.11047922E-02  6.11234845E-03
  5.32312147E-04  1.29523372E-02  5.99165439E-03  3.96688542E-18  1.02543999E-02
  4.80712866E-03  3.30487189E-18  4.55449470E-03  3.70617945E-03  2.41621193E-18
  2.44631842E-04  5.15854429E-04  3.15502400E-19  1.58400689E-05 -4.80397876E-20
 -5.20330876E-20  7.83424404E-05 -3.95009431E-04 -7.05354541E-06 -1.03015215E-19
 -2.02656616E-19  3.73938755E-04 -9.03516829E-04  1.90531620E-04 -1.31540327E-20
 -2.09781461E-19  4.52902487E-04 -1.66385540E-04 -4.31627768E-20 -1.78773166E-04
 -2.03494754E-05  9.39063237E-21 -2.22625998E-20  8.07927851E-06 -4.05834404E-05
  5.00063257E-03  5.15189180E-03  7.00644817E-05 -2.39609672E-04  8.70043314E-04
 -1.98697978E-19 -5.07082812E-19  8.42250674E-19  1.20510733E-18  8.20958862E-19
  9.34584725E-20  1.23615279E-18  4.02142850E-18  2.36110856E-02  9.66161941E-19
  3.35972765E-18  1.99948763E-02  3.69110768E-19  2.48017681E-18  1.51294505E-02
  8.16551867E-21  3.33216278E-19  2.02678272E-03 -1.04586857E-20 -2.24786289E-09
 -2.64111168E-04  4.37056770E-20 -4.20783229E-20 -6.34468282E-20 -5.16381903E-09
 -1.07241996E-03  1.91076299E-19 -9.17493807E-20 -7.21412007E-20 -5.63193461E-09
 -1.33539167E-03  2.43704199E-19 -5.96872926E-21 -2.70448034E-04 -5.59113450E-21
 -3.16991010E-20  7.73769696E-05  2.44327669E-10  2.38550826E-24  1.09097081E-20
  4.12367227E-19  4.00479830E-19 -4.80851027E-20 -1.35349740E-20  2.54032098E-19
  1.25929635E-03  1.81666282E-03  2.88369673E-03 -7.09115982E-04 -1.27527958E-03
 -6.40398412E-04 -4.52439280E-05  5.60030884E-03 -8.76051259E-04  1.77454176E-20
  4.43377859E-03 -6.89759582E-04  1.26314018E-20  1.96926071E-03 -5.19376944E-04
 -3.04013368E-20  1.05773269E-04 -7.09846302E-05 -8.84437559E-21 -5.82362123E-06
 -2.16781581E-20 -3.76593352E-21 -9.47460721E-06 -1.70793616E-04 -4.96218462E-06
 -5.06590940E-20 -3.72785328E-21 -5.06098718E-05 -3.90659722E-04 -2.56787514E-05
 -1.01275980E-20  5.81417252E-21 -6.05430809E-05 -7.19396145E-05 -3.35421097E-21
 -7.72977868E-05  4.13519286E-06  1.75649227E-21 -9.14872220E-21  3.49358366E-06
  3.60894163E-06  2.20614343E-03  2.83031599E-03  3.89460340E-04 -1.28713988E-04
  2.12820004E-04  2.12929031E-20  1.16836136E-04 -1.51136629E-03 -1.97898592E-03
 -1.10974349E-03 -1.46584700E-03 -1.95857201E-03 -3.33167177E-04 -1.92600336E-03
 -4.28188234E-03 -1.66214912E-19 -1.52481962E-03 -3.49857809E-03 -1.21571615E-19
 -6.77249609E-04 -2.18979240E-03 -2.03753854E-20 -3.63765259E-05 -2.88981710E-04
 -5.97977949E-22 -5.29311322E-05  7.90540663E-21 -2.29998078E-21 -3.39307286E-05
  5.87378730E-05 -1.25944295E-04  1.49270328E-20  1.76147792E-22 -1.90819976E-04
  1.34352019E-04 -8.52673534E-05 -2.82078400E-21  6.91840487E-21 -2.86257865E-04
  2.47428420E-05 -7.73228662E-22  2.65834263E-05  4.07670596E-05 -6.94557845E-21
  1.55697459E-21 -1.20146875E-06 -2.05941357E-05  2.28299447E-04  4.13637235E-04
  3.98774666E-04 -1.25727237E-04 -1.67535272E-04 -1.85204890E-21 -3.25383279E-05
  7.26451356E-05 -1.38020984E-19 -1.66046029E-19 -1.60734291E-19 -2.22155517E-19
 -2.65913033E-19 -4.33821954E-20 -1.14825563E-19 -1.35693073E-19  3.58619782E-03
 -9.28064826E-20 -9.72966333E-20  3.03694558E-03 -5.03349452E-20 -1.57860675E-20
  2.29795459E-03 -4.47462357E-21 -1.60402667E-21  3.07840306E-04 -9.92147964E-21
 -3.41419330E-10 -4.01148390E-05  2.54993157E-22  2.83674981E-21 -2.85076669E-20
 -7.84312798E-10 -1.62885782E-04 -6.01509472E-21  7.17162477E-21 -2.70295153E-20
 -8.55413089E-10 -2.02827553E-04 -1.35603376E-20  2.98063894E-21 -4.10773215E-05
  3.32710450E-21  1.67261970E-21  1.17524931E-05  3.71099987E-11 -1.88382770E-22
 -7.67819623E-22  9.29579881E-20  1.34503985E-19  6.16723315E-20 -2.14533703E-20
  7.98943260E-21  1.91269724E-04 -9.91014974E-22  1.17133413E-20  2.90512296E-05
 -1.12422740E-02 -2.68964973E-02  3.91974732E-02  4.77353467E-02 -6.87535883E-03
 -5.22177138E-03 -1.13006521E-01 -8.63527421E-02 -1.41882991E-17 -8.94674605E-02
 -7.07982019E-02 -1.15400487E-17 -3.97369447E-02 -3.87483138E-02 -6.04765356E-18
 -2.13435724E-03 -4.87144165E-03 -6.77132130E-19 -1.60398636E-03  4.68347865E-19
  4.48297904E-20 -3.96079190E-04  3.44638887E-03 -4.07189679E-03  1.02345619E-18
  3.32482542E-19 -2.93679432E-03  7.88296265E-03 -1.12898708E-03  6.32410848E-20
  6.26169392E-19 -5.21236190E-03  1.45168359E-03  1.57962823E-19  1.55976302E-03
  1.12761908E-03 -3.16161509E-19  1.25856239E-19 -7.04990103E-05 -9.97136991E-04
 -1.13007726E-02 -1.88085034E-02  2.91020111E-03 -2.99525045E-03 -4.90731818E-03
 -7.06687983E-19 -2.07785187E-03  1.70159906E-03  1.54447804E-19  7.51442061E-02
 -4.78573530E-03 -1.14059837E-02  1.58131139E-02  1.44435724E-02 -2.80002114E-02
 -7.45044665E-03 -1.39544651E-01 -1.14103020E-01 -1.84636124E-17 -1.10477764E-01
 -9.31822870E-02 -1.49771133E-17 -4.90686847E-02 -5.46347386E-02 -8.32480579E-18
 -2.63558532E-03 -7.03673045E-03 -9.65100373E-19 -1.79841244E-03  5.67287069E-19
  9.32435025E-20 -6.94330637E-04  4.25572677E-03 -4.40279018E-03  1.22229876E-18
  5.56207493E-19 -4.45462281E-03  9.73418589E-03 -1.87068902E-03  6.94006953E-20
  8.37363355E-19 -7.19239240E-03  1.79259925E-03  1.88403156E-19  1.92605223E-03
  1.29451683E-03 -3.35492737E-19  1.67621864E-19 -8.70524136E-05 -9.47028811E-04
 -1.88084389E-02 -2.50604000E-02  4.46686587E-03 -2.99508863E-03 -7.08284300E-03
 -9.81373389E-19 -2.45973178E-03  2.23292030E-03  2.10433311E-19  8.79369676E-02
  1.06752838E-01 -6.12221422E-03 -7.44738741E-03 -6.93694039E-03 -1.04831964E-02
 -1.62700856E-02 -2.88941187E-03 -1.71274610E-02 -3.94928883E-02 -5.48441449E-18
 -1.35598326E-02 -3.22092958E-02 -4.46105012E-18 -6.02260793E-03 -1.99934340E-02
 -2.69952335E-18 -3.23487196E-04 -2.62715440E-03 -3.41118283E-19 -5.14536745E-04
  7.16218563E-20  1.90531575E-20 -2.98334803E-04  5.22341332E-04 -1.21740695E-03
  1.34660175E-19  1.72485125E-19 -1.72437051E-03  1.19475785E-03 -7.65568680E-04
 -2.65481537E-20  2.84771526E-19 -2.60300722E-03  2.20032104E-04  3.86269591E-20
  2.36399767E-04  3.86959255E-04 -8.14078427E-20  1.23193577E-20 -1.06845082E-05
 -2.11369490E-04  2.91017012E-03  4.46683430E-03  3.53275846E-03 -1.27042079E-03
 -1.43159734E-03 -2.17689779E-19 -2.59832779E-04  6.22065210E-04  7.09910677E-20
  1.60118523E-02  2.06452532E-02  5.51842046E-03 -1.07794478E-03 -3.09989750E-03
  5.75052047E-03  6.77788299E-03 -1.69210146E-03 -9.02891335E-04 -5.93443996E-03
 -1.48286265E-02 -2.27158513E-18 -4.69829695E-03 -1.21414377E-02 -1.86162710E-18
 -2.08674746E-03 -6.75487347E-03 -1.05885579E-18 -1.12083658E-04 -8.53987679E-04
 -1.30550568E-19 -2.66484408E-04  2.81648018E-20 -5.22433393E-22 -7.27474718E-05
  1.80985142E-04 -6.70351917E-04  5.58056245E-20  4.40916134E-20 -5.21084985E-04
  4.13965192E-04 -2.05113368E-04 -1.09001661E-20  1.15554512E-19 -9.02773012E-04
  7.62378793E-05  1.96361100E-20  8.19096636E-05  1.87848861E-04 -4.84301657E-20
  2.13209511E-23 -3.70264887E-06 -1.60301445E-04  2.99523457E-03  2.99507549E-03
  1.27043356E-03 -7.52786459E-04 -2.80687980E-04 -6.94179244E-20 -9.62537594E-05
  2.03095416E-04  2.10086418E-20  7.53480572E-03  8.60068171E-03  1.95843763E-03
  9.91179743E-04 -1.82186450E-03 -4.72977530E-03  7.99452736E-03  1.11048257E-02
  6.11236505E-03  5.32310195E-04 -1.29523472E-02  5.99180485E-03  3.21387415E-18
 -1.02544039E-02  4.80726831E-03  2.70871425E-18 -4.55448469E-03  3.70626724E-03
  2.15143518E-18 -2.44631276E-04  5.15865076E-04  3.01282044E-19  1.58385422E-05
  5.17113922E-20 -2.90686021E-20  7.83499424E-05  3.95010276E-04 -7.04984960E-06
  1.25147636E-19 -1.50129067E-19  3.73954781E-04  9.03512761E-04  1.90534399E-04
  2.88622830E-20 -2.00109744E-19  4.52911603E-04  1.66379006E-04 -2.45229326E-20
  1.78773898E-04 -2.03508978E-05  1.18517470E-21  2.02416453E-20 -8.08030179E-06
 -4.05842725E-05 -4.90734765E-03 -7.08290899E-03 -1.43162972E-03  2.80691232E-04
 -2.65568465E-04  1.25771066E-19 -2.78196228E-04  1.32761489E-06  1.50370920E-20
  5.00065728E-03  5.15188573E-03  7.00568036E-05  2.39615506E-04  8.70052409E-04
 -2.61371179E-19 -6.87312800E-19  1.17658585E-18  1.59916921E-18  7.22581706E-19
  4.09647078E-20 -2.03467891E-18  3.15933120E-18  2.36111878E-02 -1.62336297E-18
  2.65385866E-18  1.99949629E-02 -7.81026260E-19  2.08747044E-18  1.51295160E-02
 -5.36108907E-20  2.83568210E-19  2.02679150E-03 -2.59521504E-20 -2.24787263E-09
 -2.64112312E-04  3.94771592E-20  5.76728728E-20 -1.02420513E-19 -5.16384140E-09
 -1.07242461E-03  1.60783087E-19  1.36413403E-19 -8.40665131E-20 -5.63195900E-09
 -1.33539745E-03  1.91219273E-19  3.60478599E-20 -2.70449206E-04  3.95542793E-20
 -2.07779695E-20  7.73773048E-05  2.44328727E-10 -2.03803286E-21  1.58987005E-21
 -5.32549840E-19 -8.07249185E-19 -1.43831882E-19  1.46396863E-21  1.09451917E-19
  1.25930180E-03 -3.97610875E-20  2.90281167E-20  1.91270553E-04  8.50437044E-19
  9.00516470E-19  6.57769208E-20  4.69741879E-20  2.67965509E-19  1.25930726E-03
 -1.81670603E-03 -2.88377205E-03  7.09156966E-04  1.27536793E-03  6.40470891E-04
  4.52548751E-05  5.60034041E-03  8.76129725E-04  2.38984628E-19  4.43380360E-03
  6.89815137E-04  1.86823542E-19  1.96927341E-03  5.19416298E-04  1.00761821E-19
  1.05773974E-04  7.09903665E-05  9.08205567E-21  5.82577156E-06 -2.14521847E-20
 -5.39307490E-21  9.47264536E-06 -1.70794550E-04  4.96366946E-06 -4.79936660E-20
 -1.58563615E-20  5.06099751E-05 -3.90662464E-04  2.56808573E-05 -8.03918006E-21
 -6.10163870E-21  6.05488672E-05 -7.19408864E-05 -3.91644041E-21 -7.72981619E-05
 -4.13571437E-06  1.56583346E-21 -9.22920061E-21  3.49348433E-06 -3.60831995E-06
  2.07783721E-03  2.45971900E-03  2.59825979E-04 -9.62488330E-05  2.78198698E-04
  3.04916855E-20  9.54684867E-05 -4.04760984E-05 -2.61441069E-21 -2.20617650E-03
 -2.83035122E-03 -3.89466549E-04 -1.28719215E-04 -2.12819051E-04 -3.24500129E-20
  1.16838054E-04 -1.51136279E-03 -1.97897287E-03 -1.10977653E-03 -1.46589075E-03
 -1.95862163E-03 -3.33174598E-04  1.92592252E-03 -4.28201186E-03 -5.42717638E-20
  1.52475979E-03 -3.49868603E-03 -3.29474515E-20  6.77220221E-04 -2.18986044E-03
  1.89805045E-20  3.63749980E-05 -2.88990547E-04  1.51448712E-21 -5.29322434E-05
 -6.92719318E-21 -5.71454513E-21 -3.39326834E-05 -5.87349867E-05 -1.25947932E-04
 -1.89999499E-20 -7.63349295E-21 -1.90827160E-04 -1.34346257E-04 -8.52699287E-05
 -9.06859289E-21  5.48175710E-21 -2.86266318E-04 -2.47379526E-05 -3.54468177E-21
 -2.65824324E-05  4.07682775E-05 -5.72569064E-21 -4.76328045E-21  1.20139804E-06
 -2.05945040E-05  1.70160179E-03  2.23293768E-03  6.22082754E-04 -2.03098135E-04
  1.32375602E-06  1.72187878E-20  4.04741310E-05  4.75372088E-05  1.06654501E-20
  2.28345813E-04  4.13696816E-04  3.98787072E-04  1.25732486E-04 -1.67536825E-04
  5.45692434E-21  3.25360786E-05  7.26474490E-05 -2.43641643E-19 -3.33703220E-19
 -1.19509631E-19 -1.48014371E-19 -2.28684756E-19 -4.07523554E-20  3.71535494E-19
 -8.47889713E-20  3.58607288E-03  2.92246856E-19 -5.72190785E-20  3.03683977E-03
  1.20686750E-19  1.43931849E-20  2.29787453E-03  4.71138644E-21  2.52074701E-21
  3.07829580E-04 -9.58286816E-21 -3.41407435E-10 -4.01134414E-05  8.05370370E-22
 -1.19958647E-20 -2.82191499E-20 -7.84285472E-10 -1.62880107E-04 -3.07424788E-21
 -2.67553847E-20 -2.55362892E-20 -8.55383286E-10 -2.02820486E-04 -1.00421411E-20
 -3.26710084E-21 -4.10758903E-05 -3.38590896E-21  1.43246557E-21  1.17520836E-05
  3.71087058E-11  1.15014337E-22 -9.77730259E-22  2.75252965E-19  3.53442679E-19
  8.60996297E-20 -3.02786991E-20  3.12099634E-20  1.91263060E-04  7.60667583E-21
  8.31224768E-21  2.90502175E-05 -3.53011670E-20 -3.00426373E-20  3.90306930E-20
  1.02968030E-20 -4.38468206E-21  1.91263889E-04  7.22560443E-21  1.36050867E-20
  2.90492053E-05
Spin SCF Density                           R   N=        1711
  0.00000000E+00  0.00000000E+00  0.00000000E+00  0.00000000E+00  0.00000000E+00
  0.00000000E+00  0.00000000E+00  0.00000000E+00  0.00000000E+00  0.00000000E+00
  0.00000000E+00  0.00000000E+00  0.00000000E+00  0.00000000E+00  0.00000000E+00
  0.00000000E+00  0.00000000E+00  0.00000000E+00  0.00000000E+00  0.00000000E+00
  0.00000000E+00  0.00000000E+00  0.00000000E+00  0.00000000E+00  0.00000000E+00
  0.00000000E+00  0.00000000E+00  0.00000000E+00  0.00000000E+00  0.00000000E+00
  0.00000000E+00  0.00000000E+00  0.00000000E+00  0.00000000E+00  0.00000000E+00
  0.00000000E+00  0.00000000E+00  0.00000000E+00  0.00000000E+00  0.00000000E+00
  0.00000000E+00  0.00000000E+00  0.00000000E+00  0.00000000E+00  0.00000000E+00
  0.00000000E+00  0.00000000E+00  0.00000000E+00  0.00000000E+00  0.00000000E+00
  0.00000000E+00  0.00000000E+00  0.00000000E+00  0.00000000E+00  0.00000000E+00
  0.00000000E+00  0.00000000E+00  0.00000000E+00  0.00000000E+00  0.00000000E+00
  0.00000000E+00  0.00000000E+00  0.00000000E+00  0.00000000E+00  0.00000000E+00
  0.00000000E+00  0.00000000E+00  0.00000000E+00  0.00000000E+00  0.00000000E+00
  0.00000000E+00  0.00000000E+00  0.00000000E+00  0.00000000E+00  0.00000000E+00
  0.00000000E+00  0.00000000E+00  0.00000000E+00  0.00000000E+00  0.00000000E+00
  0.00000000E+00  0.00000000E+00  0.00000000E+00  0.00000000E+00  0.00000000E+00
  0.00000000E+00  0.00000000E+00  0.00000000E+00  0.00000000E+00  0.00000000E+00
  0.00000000E+00  0.00000000E+00  0.00000000E+00  0.00000000E+00  0.00000000E+00
  0.00000000E+00  0.00000000E+00  0.00000000E+00  0.00000000E+00  0.00000000E+00
  0.00000000E+00  0.00000000E+00  0.00000000E+00  0.00000000E+00  0.00000000E+00
  0.00000000E+00  0.00000000E+00  0.00000000E+00  0.00000000E+00  0.00000000E+00
  0.00000000E+00  0.00000000E+00  0.00000000E+00  0.00000000E+00  0.00000000E+00
  0.00000000E+00  0.00000000E+00  0.00000000E+00  0.00000000E+00  0.00000000E+00
  0.00000000E+00  0.00000000E+00  0.00000000E+00  0.00000000E+00  0.00000000E+00
  0.00000000E+00  0.00000000E+00  0.00000000E+00  0.00000000E+00  0.00000000E+00
  0.00000000E+00  0.00000000E+00  0.00000000E+00  0.00000000E+00  0.00000000E+00
  0.00000000E+00  0.00000000E+00  0.00000000E+00  0.00000000E+00  0.00000000E+00
  0.00000000E+00  0.00000000E+00  0.00000000E+00  0.00000000E+00  0.00000000E+00
  0.00000000E+00  0.00000000E+00  0.00000000E+00  0.00000000E+00  0.00000000E+00
  0.00000000E+00  0.00000000E+00  0.00000000E+00  0.00000000E+00  0.00000000E+00
  0.00000000E+00  0.00000000E+00  0.00000000E+00  0.00000000E+00  0.00000000E+00
  0.00000000E+00  0.00000000E+00  0.00000000E+00  0.00000000E+00  0.00000000E+00
  0.00000000E+00  0.00000000E+00  0.00000000E+00  0.00000000E+00  0.00000000E+00
  0.00000000E+00  0.00000000E+00  0.00000000E+00  0.00000000E+00  0.00000000E+00
  0.00000000E+00  0.00000000E+00  0.00000000E+00  0.00000000E+00  0.00000000E+00
  0.00000000E+00  0.00000000E+00  0.00000000E+00  0.00000000E+00  0.00000000E+00
  0.00000000E+00  0.00000000E+00  0.00000000E+00  0.00000000E+00  0.00000000E+00
  0.00000000E+00  0.00000000E+00  0.00000000E+00  0.00000000E+00  0.00000000E+00
  0.00000000E+00  0.00000000E+00  0.00000000E+00  0.00000000E+00  0.00000000E+00
  0.00000000E+00  0.00000000E+00  0.00000000E+00  0.00000000E+00  0.00000000E+00
  0.00000000E+00  0.00000000E+00  0.00000000E+00  0.00000000E+00  0.00000000E+00
  0.00000000E+00  0.00000000E+00  0.00000000E+00  0.00000000E+00  0.00000000E+00
  0.00000000E+00  0.00000000E+00  0.00000000E+00  0.00000000E+00  0.00000000E+00
  0.00000000E+00  0.00000000E+00  0.00000000E+00  0.00000000E+00  0.00000000E+00
  0.00000000E+00  0.00000000E+00  0.00000000E+00  0.00000000E+00  0.00000000E+00
  0.00000000E+00  0.00000000E+00  0.00000000E+00  0.00000000E+00  0.00000000E+00
  0.00000000E+00  0.00000000E+00  0.00000000E+00  0.00000000E+00  0.00000000E+00
  0.00000000E+00  0.00000000E+00  0.00000000E+00  0.00000000E+00  0.00000000E+00
  0.00000000E+00  0.00000000E+00  0.00000000E+00  0.00000000E+00  0.00000000E+00
  0.00000000E+00  0.00000000E+00  0.00000000E+00  0.00000000E+00  0.00000000E+00
  0.00000000E+00  0.00000000E+00  0.00000000E+00  0.00000000E+00  0.00000000E+00
  0.00000000E+00  0.00000000E+00  0.00000000E+00  0.00000000E+00  0.00000000E+00
  0.00000000E+00  0.00000000E+00  0.00000000E+00  0.00000000E+00  0.00000000E+00
  0.00000000E+00  0.00000000E+00  0.00000000E+00  0.00000000E+00  0.00000000E+00
  0.00000000E+00  0.00000000E+00  0.00000000E+00  0.00000000E+00  0.00000000E+00
  0.00000000E+00  0.00000000E+00  0.00000000E+00  0.00000000E+00  0.00000000E+00
  0.00000000E+00  0.00000000E+00  0.00000000E+00  0.00000000E+00  0.00000000E+00
  0.00000000E+00  0.00000000E+00  0.00000000E+00  0.00000000E+00  0.00000000E+00
  0.00000000E+00  0.00000000E+00  0.00000000E+00  0.00000000E+00  0.00000000E+00
  0.00000000E+00  0.00000000E+00  0.00000000E+00  0.00000000E+00  0.00000000E+00
  0.00000000E+00  0.00000000E+00  0.00000000E+00  0.00000000E+00  0.00000000E+00
  0.00000000E+00  0.00000000E+00  0.00000000E+00  0.00000000E+00  0.00000000E+00
  0.00000000E+00  0.00000000E+00  0.00000000E+00  0.00000000E+00  0.00000000E+00
  0.00000000E+00  0.00000000E+00  0.00000000E+00  0.00000000E+00  0.00000000E+00
  0.00000000E+00  0.00000000E+00  0.00000000E+00  0.00000000E+00  0.00000000E+00
  0.00000000E+00  0.00000000E+00  0.00000000E+00  0.00000000E+00  0.00000000E+00
  0.00000000E+00  0.00000000E+00  0.00000000E+00  0.00000000E+00  0.00000000E+00
  0.00000000E+00  0.00000000E+00  0.00000000E+00  0.00000000E+00  0.00000000E+00
  0.00000000E+00  0.00000000E+00  0.00000000E+00  0.00000000E+00  0.00000000E+00
  0.00000000E+00  0.00000000E+00  0.00000000E+00  0.00000000E+00  0.00000000E+00
  0.00000000E+00  0.00000000E+00  0.00000000E+00  0.00000000E+00  0.00000000E+00
  0.00000000E+00  0.00000000E+00  0.00000000E+00  0.00000000E+00  0.00000000E+00
  0.00000000E+00  0.00000000E+00  0.00000000E+00  0.00000000E+00  0.00000000E+00
  0.00000000E+00  0.00000000E+00  0.00000000E+00  0.00000000E+00  0.00000000E+00
  0.00000000E+00  0.00000000E+00  0.00000000E+00  0.00000000E+00  0.00000000E+00
  0.00000000E+00  0.00000000E+00  0.00000000E+00  0.00000000E+00  0.00000000E+00
  0.00000000E+00  0.00000000E+00  0.00000000E+00  0.00000000E+00  0.00000000E+00
  0.00000000E+00  0.00000000E+00  0.00000000E+00  0.00000000E+00  0.00000000E+00
  0.00000000E+00  0.00000000E+00  0.00000000E+00  0.00000000E+00  0.00000000E+00
  0.00000000E+00  0.00000000E+00  0.00000000E+00  0.00000000E+00  0.00000000E+00
  0.00000000E+00  0.00000000E+00  0.00000000E+00  0.00000000E+00  0.00000000E+00
  0.00000000E+00  0.00000000E+00  0.00000000E+00  0.00000000E+00  0.00000000E+00
  0.00000000E+00  0.00000000E+00  0.00000000E+00  0.00000000E+00  0.00000000E+00
  0.00000000E+00  0.00000000E+00  0.00000000E+00  0.00000000E+00  0.00000000E+00
  0.00000000E+00  0.00000000E+00  0.00000000E+00  0.00000000E+00  0.00000000E+00
  0.00000000E+00  0.00000000E+00  0.00000000E+00  0.00000000E+00  0.00000000E+00
  0.00000000E+00  0.00000000E+00  0.00000000E+00  0.00000000E+00  0.00000000E+00
  0.00000000E+00  0.00000000E+00  0.00000000E+00  0.00000000E+00  0.00000000E+00
  0.00000000E+00  0.00000000E+00  0.00000000E+00  0.00000000E+00  0.00000000E+00
  0.00000000E+00  0.00000000E+00  0.00000000E+00  0.00000000E+00  0.00000000E+00
  0.00000000E+00  0.00000000E+00  0.00000000E+00  0.00000000E+00  0.00000000E+00
  0.00000000E+00  0.00000000E+00  0.00000000E+00  0.00000000E+00  0.00000000E+00
  0.00000000E+00  0.00000000E+00  0.00000000E+00  0.00000000E+00  0.00000000E+00
  0.00000000E+00  0.00000000E+00  0.00000000E+00  0.00000000E+00  0.00000000E+00
  0.00000000E+00  0.00000000E+00  0.00000000E+00  0.00000000E+00  0.00000000E+00
  0.00000000E+00  0.00000000E+00  0.00000000E+00  0.00000000E+00  0.00000000E+00
  0.00000000E+00  0.00000000E+00  0.00000000E+00  0.00000000E+00  0.00000000E+00
  0.00000000E+00  0.00000000E+00  0.00000000E+00  0.00000000E+00  0.00000000E+00
  0.00000000E+00  0.00000000E+00  0.00000000E+00  0.00000000E+00  0.00000000E+00
  0.00000000E+00  0.00000000E+00  0.00000000E+00  0.00000000E+00  0.00000000E+00
  0.00000000E+00  0.00000000E+00  0.00000000E+00  0.00000000E+00  0.00000000E+00
  0.00000000E+00  0.00000000E+00  0.00000000E+00  0.00000000E+00  0.00000000E+00
  0.00000000E+00  0.00000000E+00  0.00000000E+00  0.00000000E+00  0.00000000E+00
  0.00000000E+00  0.00000000E+00  0.00000000E+00  0.00000000E+00  0.00000000E+00
  0.00000000E+00  0.00000000E+00  0.00000000E+00  0.00000000E+00  0.00000000E+00
  0.00000000E+00  0.00000000E+00  0.00000000E+00  0.00000000E+00  0.00000000E+00
  0.00000000E+00  0.00000000E+00  0.00000000E+00  0.00000000E+00  0.00000000E+00
  0.00000000E+00  0.00000000E+00  0.00000000E+00  0.00000000E+00  0.00000000E+00
  0.00000000E+00  0.00000000E+00  0.00000000E+00  0.00000000E+00  0.00000000E+00
  0.00000000E+00  0.00000000E+00  0.00000000E+00  0.00000000E+00  0.00000000E+00
  0.00000000E+00  0.00000000E+00  0.00000000E+00  0.00000000E+00  0.00000000E+00
  0.00000000E+00  0.00000000E+00  0.00000000E+00  0.00000000E+00  0.00000000E+00
  0.00000000E+00  0.00000000E+00  0.00000000E+00  0.00000000E+00  0.00000000E+00
  0.00000000E+00  0.00000000E+00  0.00000000E+00  0.00000000E+00  0.00000000E+00
  0.00000000E+00  0.00000000E+00  0.00000000E+00  0.00000000E+00  0.00000000E+00
  0.00000000E+00  0.00000000E+00  0.00000000E+00  0.00000000E+00  0.00000000E+00
  0.00000000E+00  0.00000000E+00  0.00000000E+00  0.00000000E+00  0.00000000E+00
  0.00000000E+00  0.00000000E+00  0.00000000E+00  0.00000000E+00  0.00000000E+00
  0.00000000E+00  0.00000000E+00  0.00000000E+00  0.00000000E+00  0.00000000E+00
  0.00000000E+00  0.00000000E+00  0.00000000E+00  0.00000000E+00  0.00000000E+00
  0.00000000E+00  0.00000000E+00  0.00000000E+00  0.00000000E+00  0.00000000E+00
  0.00000000E+00  0.00000000E+00  0.00000000E+00  0.00000000E+00  0.00000000E+00
  0.00000000E+00  0.00000000E+00  0.00000000E+00  0.00000000E+00  0.00000000E+00
  0.00000000E+00  0.00000000E+00  0.00000000E+00  0.00000000E+00  0.00000000E+00
  0.00000000E+00  0.00000000E+00  0.00000000E+00  0.00000000E+00  0.00000000E+00
  0.00000000E+00  0.00000000E+00  0.00000000E+00  0.00000000E+00  0.00000000E+00
  0.00000000E+00  0.00000000E+00  0.00000000E+00  0.00000000E+00  0.00000000E+00
  0.00000000E+00  0.00000000E+00  0.00000000E+00  0.00000000E+00  0.00000000E+00
  0.00000000E+00  0.00000000E+00  0.00000000E+00  0.00000000E+00  0.00000000E+00
  0.00000000E+00  0.00000000E+00  0.00000000E+00  0.00000000E+00  0.00000000E+00
  0.00000000E+00  0.00000000E+00  0.00000000E+00  0.00000000E+00  0.00000000E+00
  0.00000000E+00  0.00000000E+00  0.00000000E+00  0.00000000E+00  0.00000000E+00
  0.00000000E+00  0.00000000E+00  0.00000000E+00  0.00000000E+00  0.00000000E+00
  0.00000000E+00  0.00000000E+00  0.00000000E+00  0.00000000E+00  0.00000000E+00
  0.00000000E+00  0.00000000E+00  0.00000000E+00  0.00000000E+00  0.00000000E+00
  0.00000000E+00  0.00000000E+00  0.00000000E+00  0.00000000E+00  0.00000000E+00
  0.00000000E+00  0.00000000E+00  0.00000000E+00  0.00000000E+00  0.00000000E+00
  0.00000000E+00  0.00000000E+00  0.00000000E+00  0.00000000E+00  0.00000000E+00
  0.00000000E+00  0.00000000E+00  0.00000000E+00  0.00000000E+00  0.00000000E+00
  0.00000000E+00  0.00000000E+00  0.00000000E+00  0.00000000E+00  0.00000000E+00
  0.00000000E+00  0.00000000E+00  0.00000000E+00  0.00000000E+00  0.00000000E+00
  0.00000000E+00  0.00000000E+00  0.00000000E+00  0.00000000E+00  0.00000000E+00
  0.00000000E+00  0.00000000E+00  0.00000000E+00  0.00000000E+00  0.00000000E+00
  0.00000000E+00  0.00000000E+00  0.00000000E+00  0.00000000E+00  0.00000000E+00
  0.00000000E+00  0.00000000E+00  0.00000000E+00  0.00000000E+00  0.00000000E+00
  0.00000000E+00  0.00000000E+00  0.00000000E+00  0.00000000E+00  0.00000000E+00
  0.00000000E+00  0.00000000E+00  0.00000000E+00  0.00000000E+00  0.00000000E+00
  0.00000000E+00  0.00000000E+00  0.00000000E+00  0.00000000E+00  0.00000000E+00
  0.00000000E+00  0.00000000E+00  0.00000000E+00  0.00000000E+00  0.00000000E+00
  0.00000000E+00  0.00000000E+00  0.00000000E+00  0.00000000E+00  0.00000000E+00
  0.00000000E+00  0.00000000E+00  0.00000000E+00  0.00000000E+00  0.00000000E+00
  0.00000000E+00  0.00000000E+00  0.00000000E+00  0.00000000E+00  0.00000000E+00
  0.00000000E+00  0.00000000E+00  0.00000000E+00  0.00000000E+00  0.00000000E+00
  0.00000000E+00  0.00000000E+00  0.00000000E+00  0.00000000E+00  0.00000000E+00
  0.00000000E+00  0.00000000E+00  0.00000000E+00  0.00000000E+00  0.00000000E+00
  0.00000000E+00  0.00000000E+00  0.00000000E+00  0.00000000E+00  0.00000000E+00
  0.00000000E+00  0.00000000E+00  0.00000000E+00  0.00000000E+00  0.00000000E+00
  0.00000000E+00  0.00000000E+00  0.00000000E+00  0.00000000E+00  0.00000000E+00
  0.00000000E+00  0.00000000E+00  0.00000000E+00  0.00000000E+00  0.00000000E+00
  0.00000000E+00  0.00000000E+00  0.00000000E+00  0.00000000E+00  0.00000000E+00
  0.00000000E+00  0.00000000E+00  0.00000000E+00  0.00000000E+00  0.00000000E+00
  0.00000000E+00  0.00000000E+00  0.00000000E+00  0.00000000E+00  0.00000000E+00
  0.00000000E+00  0.00000000E+00  0.00000000E+00  0.00000000E+00  0.00000000E+00
  0.00000000E+00  0.00000000E+00  0.00000000E+00  0.00000000E+00  0.00000000E+00
  0.00000000E+00  0.00000000E+00  0.00000000E+00  0.00000000E+00  0.00000000E+00
  0.00000000E+00  0.00000000E+00  0.00000000E+00  0.00000000E+00  0.00000000E+00
  0.00000000E+00  0.00000000E+00  0.00000000E+00  0.00000000E+00  0.00000000E+00
  0.00000000E+00  0.00000000E+00  0.00000000E+00  0.00000000E+00  0.00000000E+00
  0.00000000E+00  0.00000000E+00  0.00000000E+00  0.00000000E+00  0.00000000E+00
  0.00000000E+00  0.00000000E+00  0.00000000E+00  0.00000000E+00  0.00000000E+00
  0.00000000E+00  0.00000000E+00  0.00000000E+00  0.00000000E+00  0.00000000E+00
  0.00000000E+00  0.00000000E+00  0.00000000E+00  0.00000000E+00  0.00000000E+00
  0.00000000E+00  0.00000000E+00  0.00000000E+00  0.00000000E+00  0.00000000E+00
  0.00000000E+00  0.00000000E+00  0.00000000E+00  0.00000000E+00  0.00000000E+00
  0.00000000E+00  0.00000000E+00  0.00000000E+00  0.00000000E+00  0.00000000E+00
  0.00000000E+00  0.00000000E+00  0.00000000E+00  0.00000000E+00  0.00000000E+00
  0.00000000E+00  0.00000000E+00  0.00000000E+00  0.00000000E+00  0.00000000E+00
  0.00000000E+00  0.00000000E+00  0.00000000E+00  0.00000000E+00  0.00000000E+00
  0.00000000E+00  0.00000000E+00  0.00000000E+00  0.00000000E+00  0.00000000E+00
  0.00000000E+00  0.00000000E+00  0.00000000E+00  0.00000000E+00  0.00000000E+00
  0.00000000E+00  0.00000000E+00  0.00000000E+00  0.00000000E+00  0.00000000E+00
  0.00000000E+00  0.00000000E+00  0.00000000E+00  0.00000000E+00  0.00000000E+00
  0.00000000E+00  0.00000000E+00  0.00000000E+00  0.00000000E+00  0.00000000E+00
  0.00000000E+00  0.00000000E+00  0.00000000E+00  0.00000000E+00  0.00000000E+00
  0.00000000E+00  0.00000000E+00  0.00000000E+00  0.00000000E+00  0.00000000E+00
  0.00000000E+00  0.00000000E+00  0.00000000E+00  0.00000000E+00  0.00000000E+00
  0.00000000E+00  0.00000000E+00  0.00000000E+00  0.00000000E+00  0.00000000E+00
  0.00000000E+00  0.00000000E+00  0.00000000E+00  0.00000000E+00  0.00000000E+00
  0.00000000E+00  0.00000000E+00  0.00000000E+00  0.00000000E+00  0.00000000E+00
  0.00000000E+00  0.00000000E+00  0.00000000E+00  0.00000000E+00  0.00000000E+00
  0.00000000E+00  0.00000000E+00  0.00000000E+00  0.00000000E+00  0.00000000E+00
  0.00000000E+00  0.00000000E+00  0.00000000E+00  0.00000000E+00  0.00000000E+00
  0.00000000E+00  0.00000000E+00  0.00000000E+00  0.00000000E+00  0.00000000E+00
  0.00000000E+00  0.00000000E+00  0.00000000E+00  0.00000000E+00  0.00000000E+00
  0.00000000E+00  0.00000000E+00  0.00000000E+00  0.00000000E+00  0.00000000E+00
  0.00000000E+00  0.00000000E+00  0.00000000E+00  0.00000000E+00  0.00000000E+00
  0.00000000E+00  0.00000000E+00  0.00000000E+00  0.00000000E+00  0.00000000E+00
  0.00000000E+00  0.00000000E+00  0.00000000E+00  0.00000000E+00  0.00000000E+00
  0.00000000E+00  0.00000000E+00  0.00000000E+00  0.00000000E+00  0.00000000E+00
  0.00000000E+00  0.00000000E+00  0.00000000E+00  0.00000000E+00  0.00000000E+00
  0.00000000E+00  0.00000000E+00  0.00000000E+00  0.00000000E+00  0.00000000E+00
  0.00000000E+00  0.00000000E+00  0.00000000E+00  0.00000000E+00  0.00000000E+00
  0.00000000E+00  0.00000000E+00  0.00000000E+00  0.00000000E+00  0.00000000E+00
  0.00000000E+00  0.00000000E+00  0.00000000E+00  0.00000000E+00  0.00000000E+00
  0.00000000E+00  0.00000000E+00  0.00000000E+00  0.00000000E+00  0.00000000E+00
  0.00000000E+00  0.00000000E+00  0.00000000E+00  0.00000000E+00  0.00000000E+00
  0.00000000E+00  0.00000000E+00  0.00000000E+00  0.00000000E+00  0.00000000E+00
  0.00000000E+00  0.00000000E+00  0.00000000E+00  0.00000000E+00  0.00000000E+00
  0.00000000E+00  0.00000000E+00  0.00000000E+00  0.00000000E+00  0.00000000E+00
  0.00000000E+00  0.00000000E+00  0.00000000E+00  0.00000000E+00  0.00000000E+00
  0.00000000E+00  0.00000000E+00  0.00000000E+00  0.00000000E+00  0.00000000E+00
  0.00000000E+00  0.00000000E+00  0.00000000E+00  0.00000000E+00  0.00000000E+00
  0.00000000E+00  0.00000000E+00  0.00000000E+00  0.00000000E+00  0.00000000E+00
  0.00000000E+00  0.00000000E+00  0.00000000E+00  0.00000000E+00  0.00000000E+00
  0.00000000E+00  0.00000000E+00  0.00000000E+00  0.00000000E+00  0.00000000E+00
  0.00000000E+00  0.00000000E+00  0.00000000E+00  0.00000000E+00  0.00000000E+00
  0.00000000E+00  0.00000000E+00  0.00000000E+00  0.00000000E+00  0.00000000E+00
  0.00000000E+00  0.00000000E+00  0.00000000E+00  0.00000000E+00  0.00000000E+00
  0.00000000E+00  0.00000000E+00  0.00000000E+00  0.00000000E+00  0.00000000E+00
  0.00000000E+00  0.00000000E+00  0.00000000E+00  0.00000000E+00  0.00000000E+00
  0.00000000E+00  0.00000000E+00  0.00000000E+00  0.00000000E+00  0.00000000E+00
  0.00000000E+00  0.00000000E+00  0.00000000E+00  0.00000000E+00  0.00000000E+00
  0.00000000E+00  0.00000000E+00  0.00000000E+00  0.00000000E+00  0.00000000E+00
  0.00000000E+00  0.00000000E+00  0.00000000E+00  0.00000000E+00  0.00000000E+00
  0.00000000E+00  0.00000000E+00  0.00000000E+00  0.00000000E+00  0.00000000E+00
  0.00000000E+00  0.00000000E+00  0.00000000E+00  0.00000000E+00  0.00000000E+00
  0.00000000E+00  0.00000000E+00  0.00000000E+00  0.00000000E+00  0.00000000E+00
  0.00000000E+00  0.00000000E+00  0.00000000E+00  0.00000000E+00  0.00000000E+00
  0.00000000E+00  0.00000000E+00  0.00000000E+00  0.00000000E+00  0.00000000E+00
  0.00000000E+00  0.00000000E+00  0.00000000E+00  0.00000000E+00  0.00000000E+00
  0.00000000E+00  0.00000000E+00  0.00000000E+00  0.00000000E+00  0.00000000E+00
  0.00000000E+00  0.00000000E+00  0.00000000E+00  0.00000000E+00  0.00000000E+00
  0.00000000E+00  0.00000000E+00  0.00000000E+00  0.00000000E+00  0.00000000E+00
  0.00000000E+00  0.00000000E+00  0.00000000E+00  0.00000000E+00  0.00000000E+00
  0.00000000E+00  0.00000000E+00  0.00000000E+00  0.00000000E+00  0.00000000E+00
  0.00000000E+00  0.00000000E+00  0.00000000E+00  0.00000000E+00  0.00000000E+00
  0.00000000E+00  0.00000000E+00  0.00000000E+00  0.00000000E+00  0.00000000E+00
  0.00000000E+00  0.00000000E+00  0.00000000E+00  0.00000000E+00  0.00000000E+00
  0.00000000E+00  0.00000000E+00  0.00000000E+00  0.00000000E+00  0.00000000E+00
  0.00000000E+00  0.00000000E+00  0.00000000E+00  0.00000000E+00  0.00000000E+00
  0.00000000E+00  0.00000000E+00  0.00000000E+00  0.00000000E+00  0.00000000E+00
  0.00000000E+00  0.00000000E+00  0.00000000E+00  0.00000000E+00  0.00000000E+00
  0.00000000E+00  0.00000000E+00  0.00000000E+00  0.00000000E+00  0.00000000E+00
  0.00000000E+00  0.00000000E+00  0.00000000E+00  0.00000000E+00  0.00000000E+00
  0.00000000E+00  0.00000000E+00  0.00000000E+00  0.00000000E+00  0.00000000E+00
  0.00000000E+00  0.00000000E+00  0.00000000E+00  0.00000000E+00  0.00000000E+00
  0.00000000E+00  0.00000000E+00  0.00000000E+00  0.00000000E+00  0.00000000E+00
  0.00000000E+00  0.00000000E+00  0.00000000E+00  0.00000000E+00  0.00000000E+00
  0.00000000E+00  0.00000000E+00  0.00000000E+00  0.00000000E+00  0.00000000E+00
  0.00000000E+00  0.00000000E+00  0.00000000E+00  0.00000000E+00  0.00000000E+00
  0.00000000E+00  0.00000000E+00  0.00000000E+00  0.00000000E+00  0.00000000E+00
  0.00000000E+00  0.00000000E+00  0.00000000E+00  0.00000000E+00  0.00000000E+00
  0.00000000E+00  0.00000000E+00  0.00000000E+00  0.00000000E+00  0.00000000E+00
  0.00000000E+00  0.00000000E+00  0.00000000E+00  0.00000000E+00  0.00000000E+00
  0.00000000E+00  0.00000000E+00  0.00000000E+00  0.00000000E+00  0.00000000E+00
  0.00000000E+00  0.00000000E+00  0.00000000E+00  0.00000000E+00  0.00000000E+00
  0.00000000E+00  0.00000000E+00  0.00000000E+00  0.00000000E+00  0.00000000E+00
  0.00000000E+00  0.00000000E+00  0.00000000E+00  0.00000000E+00  0.00000000E+00
  0.00000000E+00  0.00000000E+00  0.00000000E+00  0.00000000E+00  0.00000000E+00
  0.00000000E+00  0.00000000E+00  0.00000000E+00  0.00000000E+00  0.00000000E+00
  0.00000000E+00  0.00000000E+00  0.00000000E+00  0.00000000E+00  0.00000000E+00
  0.00000000E+00  0.00000000E+00  0.00000000E+00  0.00000000E+00  0.00000000E+00
  0.00000000E+00  0.00000000E+00  0.00000000E+00  0.00000000E+00  0.00000000E+00
  0.00000000E+00  0.00000000E+00  0.00000000E+00  0.00000000E+00  0.00000000E+00
  0.00000000E+00  0.00000000E+00  0.00000000E+00  0.00000000E+00  0.00000000E+00
  0.00000000E+00  0.00000000E+00  0.00000000E+00  0.00000000E+00  0.00000000E+00
  0.00000000E+00  0.00000000E+00  0.00000000E+00  0.00000000E+00  0.00000000E+00
  0.00000000E+00  0.00000000E+00  0.00000000E+00  0.00000000E+00  0.00000000E+00
  0.00000000E+00  0.00000000E+00  0.00000000E+00  0.00000000E+00  0.00000000E+00
  0.00000000E+00  0.00000000E+00  0.00000000E+00  0.00000000E+00  0.00000000E+00
  0.00000000E+00  0.00000000E+00  0.00000000E+00  0.00000000E+00  0.00000000E+00
  0.00000000E+00  0.00000000E+00  0.00000000E+00  0.00000000E+00  0.00000000E+00
  0.00000000E+00  0.00000000E+00  0.00000000E+00  0.00000000E+00  0.00000000E+00
  0.00000000E+00  0.00000000E+00  0.00000000E+00  0.00000000E+00  0.00000000E+00
  0.00000000E+00  0.00000000E+00  0.00000000E+00  0.00000000E+00  0.00000000E+00
  0.00000000E+00  0.00000000E+00  0.00000000E+00  0.00000000E+00  0.00000000E+00
  0.00000000E+00  0.00000000E+00  0.00000000E+00  0.00000000E+00  0.00000000E+00
  0.00000000E+00  0.00000000E+00  0.00000000E+00  0.00000000E+00  0.00000000E+00
  0.00000000E+00  0.00000000E+00  0.00000000E+00  0.00000000E+00  0.00000000E+00
  0.00000000E+00  0.00000000E+00  0.00000000E+00  0.00000000E+00  0.00000000E+00
  0.00000000E+00  0.00000000E+00  0.00000000E+00  0.00000000E+00  0.00000000E+00
  0.00000000E+00  0.00000000E+00  0.00000000E+00  0.00000000E+00  0.00000000E+00
  0.00000000E+00  0.00000000E+00  0.00000000E+00  0.00000000E+00  0.00000000E+00
  0.00000000E+00  0.00000000E+00  0.00000000E+00  0.00000000E+00  0.00000000E+00
  0.00000000E+00  0.00000000E+00  0.00000000E+00  0.00000000E+00  0.00000000E+00
  0.00000000E+00  0.00000000E+00  0.00000000E+00  0.00000000E+00  0.00000000E+00
  0.00000000E+00  0.00000000E+00  0.00000000E+00  0.00000000E+00  0.00000000E+00
  0.00000000E+00  0.00000000E+00  0.00000000E+00  0.00000000E+00  0.00000000E+00
  0.00000000E+00  0.00000000E+00  0.00000000E+00  0.00000000E+00  0.00000000E+00
  0.00000000E+00  0.00000000E+00  0.00000000E+00  0.00000000E+00  0.00000000E+00
  0.00000000E+00  0.00000000E+00  0.00000000E+00  0.00000000E+00  0.00000000E+00
  0.00000000E+00  0.00000000E+00  0.00000000E+00  0.00000000E+00  0.00000000E+00
  0.00000000E+00  0.00000000E+00  0.00000000E+00  0.00000000E+00  0.00000000E+00
  0.00000000E+00  0.00000000E+00  0.00000000E+00  0.00000000E+00  0.00000000E+00
  0.00000000E+00  0.00000000E+00  0.00000000E+00  0.00000000E+00  0.00000000E+00
  0.00000000E+00  0.00000000E+00  0.00000000E+00  0.00000000E+00  0.00000000E+00
  0.00000000E+00  0.00000000E+00  0.00000000E+00  0.00000000E+00  0.00000000E+00
  0.00000000E+00  0.00000000E+00  0.00000000E+00  0.00000000E+00  0.00000000E+00
  0.00000000E+00  0.00000000E+00  0.00000000E+00  0.00000000E+00  0.00000000E+00
  0.00000000E+00  0.00000000E+00  0.00000000E+00  0.00000000E+00  0.00000000E+00
  0.00000000E+00  0.00000000E+00  0.00000000E+00  0.00000000E+00  0.00000000E+00
  0.00000000E+00  0.00000000E+00  0.00000000E+00  0.00000000E+00  0.00000000E+00
  0.00000000E+00  0.00000000E+00  0.00000000E+00  0.00000000E+00  0.00000000E+00
  0.00000000E+00  0.00000000E+00  0.00000000E+00  0.00000000E+00  0.00000000E+00
  0.00000000E+00  0.00000000E+00  0.00000000E+00  0.00000000E+00  0.00000000E+00
  0.00000000E+00  0.00000000E+00  0.00000000E+00  0.00000000E+00  0.00000000E+00
  0.00000000E+00  0.00000000E+00  0.00000000E+00  0.00000000E+00  0.00000000E+00
  0.00000000E+00  0.00000000E+00  0.00000000E+00  0.00000000E+00  0.00000000E+00
  0.00000000E+00  0.00000000E+00  0.00000000E+00  0.00000000E+00  0.00000000E+00
  0.00000000E+00  0.00000000E+00  0.00000000E+00  0.00000000E+00  0.00000000E+00
  0.00000000E+00  0.00000000E+00  0.00000000E+00  0.00000000E+00  0.00000000E+00
  0.00000000E+00  0.00000000E+00  0.00000000E+00  0.00000000E+00  0.00000000E+00
  0.00000000E+00  0.00000000E+00  0.00000000E+00  0.00000000E+00  0.00000000E+00
  0.00000000E+00  0.00000000E+00  0.00000000E+00  0.00000000E+00  0.00000000E+00
  0.00000000E+00  0.00000000E+00  0.00000000E+00  0.00000000E+00  0.00000000E+00
  0.00000000E+00  0.00000000E+00  0.00000000E+00  0.00000000E+00  0.00000000E+00
  0.00000000E+00  0.00000000E+00  0.00000000E+00  0.00000000E+00  0.00000000E+00
  0.00000000E+00  0.00000000E+00  0.00000000E+00  0.00000000E+00  0.00000000E+00
  0.00000000E+00  0.00000000E+00  0.00000000E+00  0.00000000E+00  0.00000000E+00
  0.00000000E+00  0.00000000E+00  0.00000000E+00  0.00000000E+00  0.00000000E+00
  0.00000000E+00  0.00000000E+00  0.00000000E+00  0.00000000E+00  0.00000000E+00
  0.00000000E+00  0.00000000E+00  0.00000000E+00  0.00000000E+00  0.00000000E+00
  0.00000000E+00  0.00000000E+00  0.00000000E+00  0.00000000E+00  0.00000000E+00
  0.00000000E+00  0.00000000E+00  0.00000000E+00  0.00000000E+00  0.00000000E+00
  0.00000000E+00  0.00000000E+00  0.00000000E+00  0.00000000E+00  0.00000000E+00
  0.00000000E+00  0.00000000E+00  0.00000000E+00  0.00000000E+00  0.00000000E+00
  0.00000000E+00  0.00000000E+00  0.00000000E+00  0.00000000E+00  0.00000000E+00
  0.00000000E+00  0.00000000E+00  0.00000000E+00  0.00000000E+00  0.00000000E+00
  0.00000000E+00  0.00000000E+00  0.00000000E+00  0.00000000E+00  0.00000000E+00
  0.00000000E+00  0.00000000E+00  0.00000000E+00  0.00000000E+00  0.00000000E+00
  0.00000000E+00  0.00000000E+00  0.00000000E+00  0.00000000E+00  0.00000000E+00
  0.00000000E+00  0.00000000E+00  0.00000000E+00  0.00000000E+00  0.00000000E+00
  0.00000000E+00  0.00000000E+00  0.00000000E+00  0.00000000E+00  0.00000000E+00
  0.00000000E+00  0.00000000E+00  0.00000000E+00  0.00000000E+00  0.00000000E+00
  0.00000000E+00  0.00000000E+00  0.00000000E+00  0.00000000E+00  0.00000000E+00
  0.00000000E+00  0.00000000E+00  0.00000000E+00  0.00000000E+00  0.00000000E+00
  0.00000000E+00  0.00000000E+00  0.00000000E+00  0.00000000E+00  0.00000000E+00
  0.00000000E+00  0.00000000E+00  0.00000000E+00  0.00000000E+00  0.00000000E+00
  0.00000000E+00  0.00000000E+00  0.00000000E+00  0.00000000E+00  0.00000000E+00
  0.00000000E+00  0.00000000E+00  0.00000000E+00  0.00000000E+00  0.00000000E+00
  0.00000000E+00  0.00000000E+00  0.00000000E+00  0.00000000E+00  0.00000000E+00
  0.00000000E+00
Number of excited states                   I                1
Excited state NLR                          I                1
Number of ex state dens                    I                1
Number of g2e trans dens                   I                1
Number of e2e trans dens                   I                0
Excited state spins                        I   N=           1
           2
Excited state densities                    R   N=        3422
  2.00993835E-01  3.05542173E-01  4.73119256E-01 -2.44097919E-02 -7.11726060E-02
  1.37185933E-01 -6.95701591E-02 -1.54663973E-01  2.00915162E-01  3.28781757E-01
 -7.56016085E-03 -2.57957867E-02  5.82424615E-02  4.74602188E-02  1.01377061E-01
  3.87166705E-02  9.03711970E-02 -1.26129607E-01 -4.15671536E-01  2.82486334E-01
  1.98429810E+00 -5.55625388E-08 -1.31521250E-07  1.53547973E-07  8.26651613E-07
  1.05006975E-07 -2.29760102E-06  1.47713045E-01 -4.52699196E-03 -1.03677901E-02
  1.61147840E-02  1.18506452E-02  9.46839648E-02  1.81200122E-01  9.38976175E-08
  1.93086077E-01  6.03089825E-19  1.39946940E-18 -2.09276558E-18 -5.20880039E-18
 -3.40987174E-18  1.09712111E-17 -2.82689216E-18 -3.78114677E-17  1.11199281E-01
 -6.34592970E-08 -1.53855017E-07  2.02242374E-07  7.63393992E-07  8.52627619E-08
 -1.87625366E-06  1.16944793E-01 -2.84085135E-08 -1.52204918E-18  9.25854889E-02
 -3.10779696E-04 -2.11412913E-03  8.07486748E-03 -4.86379910E-03  8.47727409E-02
  2.07082197E-01 -9.60601752E-08  1.62177618E-01 -3.12167900E-17 -1.62119508E-07
  1.37908971E-01  3.16500306E-19  9.13505414E-19 -1.83076625E-18 -4.92786114E-18
 -2.05522552E-18  1.34386213E-17 -2.58114485E-18 -3.10202067E-17  9.41082639E-02
 -1.39691595E-18 -2.54978240E-17  7.96592696E-02 -9.76925438E-08 -2.21225166E-07
  2.82500018E-07  8.21555996E-07 -1.46468353E-07 -2.57479507E-06  5.19410064E-02
 -1.04422042E-07  4.36721726E-18  4.11218265E-02 -2.00081939E-07  3.40619522E-18
  1.82642511E-02 -1.02995422E-02 -2.34119527E-02  3.24710745E-02  6.28142497E-02
  2.73518658E-02 -1.00080160E-01  2.27395162E-07  8.14804280E-02 -2.35268077E-17
  1.41760359E-07  6.29601762E-02 -1.97810515E-17  1.92360187E-07  5.27280488E-02
  6.46626822E-19  1.40793949E-18 -1.81538441E-18 -3.02038291E-18 -3.15333179E-18
  3.78208529E-19 -2.95735773E-18 -2.21459566E-17  7.08228574E-02 -1.56113760E-18
 -1.84689230E-17  6.00464249E-02  8.17510506E-19 -1.33489550E-17  4.58916667E-02
  9.92536520E-09  2.58713396E-08 -4.33556147E-08 -1.46092458E-07  1.17495465E-07
  7.60932684E-07  2.78986593E-03  7.02710383E-08  2.68352844E-18  2.20874393E-03
  7.80132377E-08  1.96587471E-18  9.81013178E-04 -3.82289404E-08 -3.97206680E-19
  5.26923802E-05 -6.25310650E-03 -1.48895338E-02  2.17159669E-02  6.37829938E-02
 -3.21170249E-02 -2.71304821E-01  3.46596641E-07 -1.12661775E-02 -4.74841771E-18
  2.76505454E-07 -1.73727663E-02 -4.52730092E-18  3.67399407E-07  2.08421698E-02
 -1.87411987E-18 -1.03699454E-07  3.81725239E-02 -9.41293117E-19 -2.28753238E-18
  3.40613712E-18  1.15509079E-17 -8.61382712E-18 -5.67763736E-17 -1.24090149E-18
 -7.72272961E-18  9.41472254E-03 -9.78434827E-19 -8.05551150E-18  7.99768386E-03
 -9.40866143E-19  1.34489108E-18  6.21059555E-03 -1.19349223E-18  7.60214195E-18
  8.72319606E-04  4.43415752E-05  1.60470814E-04 -3.58183906E-04  4.04138266E-04
 -4.72649087E-04 -5.79455333E-03  2.98011230E-08  1.84775249E-03 -7.76198369E-20
  2.16323373E-08  1.33550098E-03 -7.28506472E-20  1.49608451E-08  1.40644651E-03
  9.85626532E-22 -1.90399548E-09  9.53427573E-04  1.68896407E-19  5.86257290E-05
  4.32147167E-19  1.05057836E-18 -1.61659227E-18 -4.76224764E-18  2.80739310E-18
  2.26134370E-17  4.80208909E-19  1.98299212E-18 -9.61952943E-09  3.82824884E-19
  2.31233927E-18 -8.35912557E-09  1.80395393E-19 -9.80637693E-19 -8.03921043E-09
  1.33585899E-20 -2.82344592E-18 -1.42930726E-09 -4.77649973E-20  7.75012110E-06
 -4.06613541E-20 -1.05116750E-19  1.73495154E-19  3.57004264E-19 -1.87426946E-19
 -1.06447957E-18 -1.80243143E-19  1.41120504E-19 -1.31161620E-03 -1.18046100E-19
  9.47201873E-20 -1.09312112E-03 -4.17458538E-19  2.46055799E-19 -7.14424667E-04
 -4.37515620E-19  1.85089730E-19 -7.64053629E-05 -2.74949084E-21 -3.35231193E-11
  3.44009751E-05 -1.24391174E-04 -3.32770423E-04  5.96820764E-04  5.11659906E-04
  1.25835442E-03  3.09150114E-03 -3.70815050E-08  1.58887855E-03 -3.49389896E-19
 -2.97320500E-08  1.37707906E-03 -2.85863969E-19 -1.50812293E-08  5.71311727E-04
 -2.31966129E-19  5.43310716E-10 -3.11603846E-04 -1.18688753E-19  3.37063736E-06
 -2.84400224E-21 -2.45962895E-22  1.72674542E-05 -4.04990666E-09 -9.38433217E-09
  1.40943473E-08  1.81808817E-08 -2.24806867E-08 -8.02256452E-08 -4.50482981E-03
 -2.53757269E-08  3.22276427E-19 -3.56648518E-03 -2.00023284E-08  3.13779812E-19
 -1.58405369E-03 -2.83627499E-09  5.06655301E-19 -8.50830147E-05  9.50641730E-09
 -1.06154198E-20 -6.82157843E-10 -1.33825639E-20  3.07028017E-20  8.81880136E-10
  1.37384559E-04  9.03397928E-04  1.82588774E-03 -1.85468778E-03 -1.02622188E-03
 -9.24149207E-04 -9.42088539E-03  2.20160952E-08  4.65220522E-03  7.59530765E-20
  1.21746696E-08  3.52994592E-03  6.12139599E-20  1.37932005E-08  2.97900853E-03
  2.07055635E-19 -3.72358145E-09  1.64748417E-03  3.15321923E-19  1.31249188E-04
 -4.66613039E-20 -4.47145997E-21  1.03686683E-05 -5.19671648E-10  3.08124982E-04
  1.30132109E-18  3.11645674E-18 -4.57522316E-18 -1.43028209E-17  9.15533952E-18
  6.67741783E-17  1.10775641E-18  6.05827143E-18 -2.36488468E-08  8.78498752E-19
  6.94917527E-18 -2.02232298E-08  3.95973897E-19 -3.29577489E-18 -1.68045582E-08
  2.33486283E-20 -8.98223641E-18 -2.22141551E-09 -1.82581398E-19  4.37051583E-06
  1.25315955E-10  8.15281849E-20 -3.30784908E-20 -2.76585191E-19  2.46465938E-06
 -1.15632663E-19 -2.37825713E-19  2.63577576E-19  8.38438216E-20  6.33773223E-19
  2.41521203E-18  1.87333819E-19  1.59067612E-18 -5.11776221E-03  2.15560668E-19
  1.40555592E-18 -4.31333911E-03 -2.70978388E-19  7.74590766E-19 -3.13007239E-03
 -2.05408675E-19 -2.04591950E-19 -4.03150028E-04 -1.63940900E-20  3.14309483E-10
  7.97604478E-05  1.77672170E-20  7.13126620E-20 -4.05463438E-20  8.08823011E-10
  2.58546600E-04 -9.12010882E-04 -2.01764422E-03  2.67642687E-03  3.23493470E-03
  5.13716593E-03  7.74229641E-03 -4.71745120E-08  8.41792124E-03 -1.68485367E-18
 -4.03659405E-08  7.04308213E-03 -1.38113646E-18 -2.06239481E-08  3.75936610E-03
 -1.00873246E-18  2.12764400E-09 -4.31611867E-04 -3.31349425E-19  6.37833717E-05
 -2.08861659E-20  9.32240070E-21  7.84368774E-05  6.37846381E-10  1.50358073E-04
  1.95744655E-19  7.52982232E-20  3.98587606E-04  1.24412148E-08  2.55557311E-08
 -2.55101792E-08 -2.75122935E-08 -8.63952728E-08 -2.51244975E-07 -1.03039998E-02
 -4.11157983E-08  7.41275815E-19 -8.15770281E-03 -3.33062919E-08  6.43814171E-19
 -3.62324208E-03  2.36997869E-09  6.08630785E-19 -1.94612318E-04  3.15386976E-08
 -1.49821039E-19 -4.67790925E-10 -4.16827333E-20 -1.40084015E-20  1.77107397E-09
  3.14242832E-04  1.65223679E-09 -8.19060911E-20  6.44141189E-20  1.14635474E-09
  7.18774788E-04 -1.53948244E-03 -3.54112932E-03  4.88682453E-03  1.26326219E-02
 -4.45583999E-03 -4.65080158E-02  6.45901936E-08 -5.00718183E-04  2.14971441E-19
  5.14112757E-08 -1.82858852E-03  9.79205632E-20  6.58714810E-08  4.39978177E-03
  3.24181874E-19 -1.76713454E-08  6.67081950E-03  1.39094985E-18  1.74321613E-04
 -4.92584614E-19  1.57953072E-20 -3.83592889E-05  1.48223654E-09  3.01119463E-04
 -1.54624420E-18 -8.64574106E-20  3.75452097E-06  4.74546529E-09  1.18431549E-03
  1.01561827E-18  2.44773402E-18 -3.53447347E-18 -1.22863084E-17  8.88351400E-18
  5.82616373E-17  2.12977845E-19  5.46930546E-18 -2.72772320E-08  1.64493972E-19
  6.17119662E-18 -2.30232114E-08  5.68340180E-20 -3.18550657E-18 -1.64340247E-08
 -2.63535462E-21 -8.38421246E-18 -1.43172217E-09 -1.97356713E-19 -1.20643110E-05
  2.79543471E-10  1.49685473E-19 -8.47235332E-21 -3.68035271E-19 -6.80341134E-06
  9.70596405E-10  3.96637516E-19 -2.14384856E-21 -1.42438456E-18  1.87800419E-05
  1.22265856E-19  2.55775833E-19 -2.75046214E-19 -1.11806096E-18  1.58773937E-18
  6.55087050E-18  1.46918217E-18  2.62239000E-18 -6.17963010E-03  1.28261488E-18
  2.38069267E-18 -5.25280972E-03  1.37299907E-18  8.14899775E-19 -4.09865748E-03
  1.60599240E-18 -8.01950621E-19 -5.93660193E-04 -1.46029390E-20  7.48775961E-10
  4.52864506E-05  3.32951686E-20  1.06909500E-19 -5.06680573E-20  1.09097158E-09
  2.65676867E-04  1.05857809E-19  3.19892511E-19 -1.93750739E-19  8.61157880E-10
  4.17708294E-04  3.35531346E-04  5.45451848E-04 -1.75561754E-05 -4.76939010E-03
  1.13178773E-02  4.45513891E-02 -2.79039376E-08  1.54250419E-02 -2.08865848E-18
 -2.88896902E-08  1.38575044E-02 -1.62947638E-18 -4.70292760E-08  3.67978262E-03
 -1.28738003E-18  1.72568839E-08 -5.20271754E-03 -1.40167691E-18  1.37505253E-05
  5.22715142E-19 -2.19716549E-21  1.58329425E-04 -3.00189537E-09  1.16190732E-04
  1.50616950E-18  1.40364454E-19  6.85852967E-04 -7.43524235E-09 -7.92228179E-04
  1.28505152E-18  2.39685803E-19  1.73957687E-03 -8.99410680E-09 -1.98540179E-08
  2.42241033E-08  1.15873704E-07 -1.46606274E-07 -7.47847711E-07 -1.89748525E-03
 -1.44962954E-07 -9.10921882E-19 -1.50224388E-03 -1.38833208E-07 -6.98359541E-19
 -6.67221322E-04 -2.19936562E-09 -6.69373109E-20 -3.58379280E-05  9.60417436E-08
  1.42451503E-19  1.01160147E-09 -1.35452198E-20  9.70571046E-20 -1.32915008E-09
  5.78679297E-05  1.45044465E-09 -1.84099302E-20  1.01328036E-19 -5.79173583E-09
  1.32362634E-04  1.57183543E-08  8.71144026E-21 -1.79642104E-19 -2.18742202E-08
  2.43746266E-05 -9.35232893E-22 -6.14397244E-21  1.79301612E-20  1.49880102E-19
 -2.34911426E-19 -1.02585148E-18 -1.19847993E-19  2.45459362E-19 -1.28608287E-03
 -1.50295991E-19  1.76277254E-19 -1.08638385E-03 -3.25857601E-19  2.69289907E-19
 -8.05112456E-04 -3.73921206E-19  1.84474472E-19 -9.90037863E-05  1.85074055E-21
  1.09672630E-10  1.79123835E-05  1.19607695E-21 -4.56733993E-20  2.29484535E-21
  3.73256655E-10  5.95991365E-05  1.30430047E-20 -1.05261283E-19  1.87726278E-20
  4.55236581E-10  5.91180962E-05  2.20559954E-21  4.70440585E-20  1.73286861E-05
 -1.95031005E-09 -4.92581506E-09  8.38697129E-09  1.45260276E-08 -1.16529257E-08
 -6.22284395E-08 -2.03879594E-03 -7.29810170E-09 -1.59067214E-20 -1.61411991E-03
 -6.42720337E-09 -5.60290231E-21 -7.16911039E-04  3.31746776E-09  4.25147913E-20
 -3.85068720E-05  8.33537778E-09  2.99800548E-20 -1.38706390E-10 -6.26741274E-21
  9.58328990E-21  4.04022195E-10  6.21775056E-05  1.12488447E-10 -1.50887867E-20
  3.61839672E-21  4.62196189E-10  1.42220025E-04  1.40954566E-09 -3.50527141E-21
 -3.65045491E-20 -1.52403676E-09  2.61898684E-05  5.66706991E-21  2.81402964E-05
 -1.46521179E-04 -2.80665979E-04  2.33353625E-04 -9.21797153E-05  7.91261839E-06
  2.42450555E-03 -5.40270977E-09 -1.52910571E-03  3.68484265E-19 -2.88495767E-09
 -1.17552467E-03  3.12905797E-19 -3.67983651E-09 -9.55783192E-04  2.02414141E-19
  9.63079030E-10 -4.52993940E-04 -4.32797418E-20 -3.65390862E-05  3.72869031E-20
 -1.17282456E-21 -6.03547719E-06  1.25638473E-10 -8.44016205E-05  8.57708569E-20
 -6.38443548E-21 -5.62831909E-05 -3.83556803E-10 -8.66510051E-05  5.54693623E-20
 -1.54269020E-20 -5.28128294E-05 -2.21650070E-10 -3.50417179E-21 -4.37965039E-11
  2.39615794E-05 -8.81752523E-20 -1.87847191E-19  2.19382304E-19  3.46399620E-19
 -1.44874639E-19 -5.55343621E-19 -4.31052929E-19 -3.97084767E-19  3.44077013E-04
 -3.74805088E-19 -3.45996844E-19  2.95343464E-04 -3.68320097E-19 -1.23081310E-19
  2.48452274E-04 -3.51086987E-19  6.87833145E-20  4.26124524E-05 -4.41548786E-21
  4.71807550E-11  9.91851949E-07 -3.23395996E-21 -2.25474313E-20 -8.96571635E-21
  4.70569798E-11 -1.27172728E-05 -1.14198714E-20 -6.40127290E-20  1.47323602E-20
 -1.23536980E-10 -3.37391948E-05 -2.64943129E-20  4.44008090E-20 -1.46505814E-06
  9.61161302E-21  4.98834859E-21  3.95868773E-06  3.39455301E-19  8.18380800E-19
 -1.17794501E-18 -4.11180641E-18  2.89382774E-18  1.91573334E-17  2.24473231E-19
  1.58074035E-18  7.08859777E-10  1.75925818E-19  1.84944190E-18  6.55960847E-10
  7.10924472E-20 -1.19317661E-18  1.07051268E-09  1.34402812E-21 -2.81888146E-18
  4.97227650E-10 -7.09360005E-20 -5.24214901E-06  5.70976988E-12  5.37315026E-20
 -7.70430344E-21 -1.38012627E-19 -2.95619834E-06 -1.20987658E-10  1.38152557E-19
 -1.01332312E-20 -4.79511208E-19  8.16024871E-06 -3.64818339E-10  4.05125890E-19
  2.09304781E-21  5.56254020E-11 -3.34377101E-21  1.89009234E-20 -7.52913904E-12
  3.54576733E-06  3.20324763E-09  6.44533299E-09 -6.65915920E-09 -4.01556206E-09
 -9.85597446E-09 -3.99515131E-08  9.21450562E-05 -2.24916334E-09 -1.11317695E-19
  7.29514747E-05 -2.98347904E-09 -6.31436660E-20  3.24013830E-05  1.77997964E-09
  1.47883061E-19  1.74034968E-06  5.39853220E-09  9.76682356E-20  2.31070294E-10
  1.45390601E-21  3.96564606E-20 -1.18838106E-10 -2.81016341E-06  4.93885271E-10
  1.34168708E-21  2.63941380E-20 -2.79354102E-10 -6.42775079E-06  8.64602123E-10
 -1.66503622E-21 -1.13004318E-19 -8.80413474E-10 -1.18367259E-06  2.24809103E-20
 -1.27182380E-06 -1.14272539E-10  2.32862784E-20 -6.41027546E-22  5.74811222E-08
  4.68467392E-04  9.98215991E-04 -1.17366108E-03 -1.65593848E-03 -1.67192007E-04
  8.96341666E-04  8.29490286E-09  1.01957316E-03 -1.85392572E-19  5.07821199E-09
  8.69435276E-04 -1.52154043E-19  1.07284952E-09  3.12211242E-04 -8.60604772E-20
  4.30756197E-10 -7.45780099E-05 -3.18090217E-20  2.12470302E-05 -2.07416220E-20
  7.19015474E-22  2.33774010E-06 -4.76916266E-10  5.97308092E-05  1.50287611E-20
  4.08426969E-21  2.40442777E-05 -3.14954556E-10 -1.50584693E-05  7.55464968E-20
  7.90614637E-21  7.01831648E-05 -7.24303269E-10  2.35408851E-21 -1.85173903E-10
 -1.51348578E-05 -3.56759797E-21  2.87867886E-20  9.28603338E-11  1.85843401E-05
 -4.80935938E-03 -1.14922352E-02  1.67137655E-02  1.45787402E-02  2.63514436E-03
  4.09677161E-02  5.64967393E-02 -3.94266369E-02 -3.12488295E-18  4.47286539E-02
 -3.10376138E-02 -2.67179361E-18  1.98661856E-02 -2.16968861E-02 -2.95107222E-18
  1.06707667E-03 -8.41311907E-03 -1.39531915E-18 -9.31661637E-04  5.87552928E-19
  1.45861678E-19 -1.32236012E-04 -1.72298936E-03 -2.24817148E-03  1.71749423E-18
  3.35632503E-19 -1.30955502E-03 -3.94105381E-03 -1.59153596E-03  1.35606300E-18
 -6.05665858E-20 -1.64323650E-03 -7.25743870E-04  1.78330313E-19 -7.79792836E-04
  6.18967575E-04  1.13071988E-19  5.70093625E-19  3.52402063E-05 -4.79388583E-04
  3.85099828E-02  2.71003687E-04  7.16056422E-04 -1.56149894E-03 -2.33794514E-02
  6.05434090E-03  1.40177926E-01  6.97644485E-02 -4.47635483E-02 -4.38763965E-18
  5.52327308E-02 -3.22659446E-02 -3.39013666E-18  2.45314711E-02 -3.50285702E-02
 -2.80727463E-18  1.31770492E-03 -2.32624846E-02 -3.32787070E-18 -1.32933853E-03
  1.66859896E-18  4.08632756E-19 -1.30166530E-04 -2.12762457E-03 -2.90711418E-03
  5.12053393E-18  5.44149057E-19 -1.70565737E-03 -4.86658524E-03 -4.32800183E-03
  4.43887846E-18 -1.04733105E-18 -4.21874722E-04 -8.96209591E-04  4.60091955E-19
 -9.62924420E-04  8.30727957E-04  3.57089534E-19  1.63241860E-18  4.35154699E-05
 -4.11446019E-04  4.71094132E-02  6.37948913E-02 -1.55895101E-02 -3.39139400E-02
  4.10635653E-02  1.38942287E-01 -1.02722623E-01 -6.80198173E-01  8.56360712E-03
 -7.74832031E-02 -6.54618017E-18  6.77985788E-03 -8.34911656E-02 -6.62436266E-18
  3.01186408E-03  2.64733167E-02  4.57995609E-19  1.61466194E-04  9.18282847E-02
  2.19497794E-17  1.77605901E-03 -7.42566650E-18  1.01797318E-18 -1.17197210E-03
 -2.61113453E-04  2.73129354E-03 -2.26576513E-17 -8.84485852E-19 -3.31578034E-03
 -5.97229863E-04  1.56224746E-02 -2.04230058E-17 -5.86499197E-18 -1.62609459E-02
 -1.09733196E-04  1.20414581E-18 -1.18166425E-04 -6.74970632E-04  9.75126292E-19
 -6.73527480E-18  5.35511734E-06 -3.95572232E-04 -6.91187500E-03 -3.89291482E-02
  2.35045482E-01  9.18972529E-04  2.46567954E-03 -4.22605244E-03 -7.77045004E-03
  3.72368260E-03  2.11008158E-02 -2.96682757E-03  9.16422544E-03  4.49490194E-19
 -2.34885249E-03  8.11539150E-03  4.77055760E-19 -1.04326045E-03  2.26503570E-03
  5.85005319E-19 -5.60265010E-05 -2.40702310E-03 -4.46487020E-19  7.12495894E-05
  1.97823741E-19  8.33634579E-21  6.74662755E-05  9.04775430E-05  2.33223675E-04
  6.76889964E-19  6.21845979E-21  3.34981194E-04  2.06953697E-04 -3.84448337E-04
  6.71030501E-19 -5.15198627E-20  9.06107441E-04  3.81002643E-05 -4.89336333E-21
  4.09483426E-05 -6.74116617E-05  1.72869880E-22  2.13781876E-19 -1.85079591E-06
  8.88829718E-05 -3.31075197E-03 -2.79900879E-03 -8.04534375E-03  7.10116087E-04
 -1.10633673E-03 -2.83576652E-03  4.69182795E-03  7.80229923E-03  1.57947948E-03
 -1.03286732E-02  6.47549201E-03  2.09466045E-03 -2.17462040E-18  5.12666471E-03
  1.35176656E-03 -1.88730372E-18  2.27701939E-03  2.42233942E-03 -1.61527025E-18
  1.22298933E-04  1.71179600E-03  4.26842121E-21  3.96641929E-05 -8.40199809E-20
 -1.43891583E-20  2.32040087E-05 -1.97483244E-04  4.86242080E-05 -2.98314652E-19
  6.05130954E-20  1.48664928E-04 -4.51709057E-04  3.45091314E-04 -3.16320790E-19
  2.10131265E-19 -7.05479935E-06 -8.31801122E-05  1.05840273E-20 -8.93767412E-05
 -2.37340337E-05 -3.27561976E-20 -1.03548410E-19  4.03943588E-06 -2.48108984E-05
  2.26707631E-03  1.80675333E-03  3.66079874E-03 -2.30068638E-04  4.91573309E-04
  3.28289562E-19  8.05966231E-19 -1.18809029E-18 -3.48722798E-18  1.95040352E-18
  1.35548917E-17 -1.26174914E-18 -1.68360873E-20  5.86861761E-03 -9.65771527E-19
  3.38557290E-19  4.98137918E-03 -5.49935858E-19 -1.70815669E-18  3.84351217E-03
 -4.27026700E-19 -2.21568082E-18  5.31023438E-04 -4.75111968E-20 -7.46311712E-06
 -5.24095607E-05  3.94362281E-20  4.10846890E-20 -7.71544792E-20 -4.20961992E-06
 -2.54286437E-04  9.18842550E-20  3.82405927E-20 -3.17645575E-19  1.16151889E-05
 -3.56281111E-04  2.17671165E-19  6.27441040E-20 -6.40760565E-05  2.14717216E-20
  1.79416637E-20  2.38368327E-05  5.04768864E-06  3.69727423E-20  3.66535919E-20
 -3.11810891E-19  6.92042712E-19 -4.18024131E-18  2.94723562E-19 -2.80644975E-19
  3.32825898E-04  5.70415381E-03  1.29985150E-02 -1.74011001E-02 -5.58254118E-02
  3.58824194E-02  2.59763301E-01  2.79954444E-03  2.16647131E-02  1.09529184E-18
  2.21639964E-03  2.54503693E-02  1.55141096E-18  9.84184332E-04 -1.42161659E-02
  4.59967270E-19  5.29804955E-05 -3.56842906E-02 -7.39107246E-18 -7.81057110E-04
  2.79906988E-18 -4.17301716E-20  3.86748516E-04 -8.53978062E-05 -1.28060395E-03
  8.66719390E-18  4.73704826E-19  9.13932331E-04 -1.95341156E-04 -6.13862402E-03
  7.89611758E-18  8.98523776E-19  5.69557143E-03 -3.60631178E-05 -1.51348914E-19
 -3.86528054E-05  3.34395892E-04 -8.36878933E-20  2.63003715E-18  1.74137915E-06
  1.12812360E-04  6.81069228E-03  2.02635821E-02 -8.87108913E-02  2.64043182E-03
 -1.28135056E-03  1.95673799E-18  3.40860806E-02 -5.72869353E-03 -1.29731413E-02
  1.71214985E-02  5.64950973E-02 -3.85206596E-02 -2.69559910E-01 -9.62573949E-04
 -2.50597945E-02 -1.37781038E-18 -7.62064156E-04 -2.84974436E-02 -1.78389826E-18
 -3.38234159E-04  1.33783049E-02 -3.75157426E-19 -1.82894373E-05  3.68227552E-02
  7.69611829E-18  7.80481452E-04 -3.10313319E-18  9.15317201E-20 -4.22923297E-04
  2.93762288E-05  1.26247987E-03 -9.09411167E-18 -4.21566571E-19 -1.06933841E-03
  6.72019996E-05  6.30971351E-03 -7.87209558E-18 -9.43177741E-19 -6.08064861E-03
  1.24707662E-05  1.60418285E-19  1.32985969E-05 -3.24251980E-04  9.00288644E-20
 -2.58426184E-18 -5.95245269E-07 -1.25395283E-04 -5.80511002E-03 -1.93392797E-02
  9.23927895E-02 -2.86759849E-03  1.35530569E-03 -1.83203799E-18 -3.53023579E-02
  3.66273591E-02  1.36633098E-18  3.18410412E-18 -4.33733726E-18 -1.49251728E-17
  1.03531396E-17  6.95710877E-17 -7.27585109E-19  6.28171232E-18  8.34142142E-04
 -6.89711246E-19  7.15286847E-18  7.19618911E-04 -9.92899843E-19 -3.98016900E-18
  6.27921824E-04 -1.13483813E-18 -1.00588520E-17  1.14553253E-04 -2.42059580E-19
 -1.65093991E-05  6.76965359E-06  1.83672170E-19 -9.43682430E-20 -4.45732728E-19
 -9.31001724E-06 -2.79437002E-05  4.95967524E-19 -2.34143480E-19 -1.70068149E-18
  2.56994709E-05 -9.37396273E-05  1.53211061E-18  1.53499896E-19 -1.54728114E-06
  2.12591851E-20  6.86807656E-20  1.19514832E-05  1.11669770E-05  7.35493910E-20
  1.01701826E-19  1.82526042E-18  6.45527162E-18 -2.19879329E-17  8.80655094E-19
 -4.86209788E-19  7.84772317E-05  9.44656779E-18 -9.35310731E-18  7.17730766E-05
 -4.80945039E-03 -1.14924533E-02  1.67141188E-02  1.45791804E-02  2.63484391E-03
  4.09661558E-02 -5.64973132E-02 -3.94266350E-02  1.12220124E-17 -4.47290241E-02
 -3.10375830E-02  9.45586885E-18 -1.98664243E-02 -2.16966799E-02  6.03477668E-18
 -1.06704938E-03 -8.41289794E-03 -7.12505802E-19 -9.31671449E-04  2.04078459E-19
 -1.17311825E-19 -1.32209077E-04  1.72300943E-03 -2.24816622E-03  8.60898843E-19
 -2.21584450E-19 -1.30951224E-03  3.94105774E-03 -1.59149742E-03  1.21807436E-18
 -6.39528891E-20 -1.64326376E-03  7.25749786E-04 -2.58663348E-19  7.79797347E-04
  6.18964998E-04  1.08240100E-19  4.09224956E-19 -3.52467524E-05 -4.79396487E-04
 -4.70768291E-03 -6.25768514E-03 -1.34615567E-02 -1.04128429E-03 -2.68636383E-03
  8.52048874E-19  4.66872291E-03 -5.06833292E-03  1.31188210E-18  3.85101852E-02
  2.70889261E-04  7.15787430E-04 -1.56107653E-03 -2.33785978E-02  6.05361126E-03
  1.40173499E-01 -6.97650822E-02 -4.47634894E-02  1.57721519E-17 -5.52331526E-02
 -3.22659339E-02  1.32681369E-17 -2.45319291E-02 -3.50280643E-02  7.20690842E-18
 -1.31759844E-03 -2.32618520E-02 -4.28377711E-18 -1.32933758E-03  1.21272559E-18
 -4.76543742E-19 -1.30136086E-04  2.12763121E-03 -2.90708105E-03  4.07264312E-18
 -2.88583937E-19 -1.70560531E-03  4.86655824E-03 -4.32789196E-03  4.24085161E-18
  1.36429106E-18 -4.21947984E-04  8.96152255E-04 -6.22501501E-19  9.62919299E-04
  8.30717724E-04 -1.62322989E-19  1.42177167E-18 -4.35246180E-05 -4.11453159E-04
 -6.25763902E-03 -2.10521336E-03 -4.70161229E-02  3.41188591E-06 -4.30993902E-03
  1.48009688E-18  1.76182639E-02 -1.84291394E-02  4.12441009E-18  4.71092828E-02
  6.37940767E-02 -1.55897555E-02 -3.39144809E-02  4.10642510E-02  1.38944375E-01
 -1.02723856E-01 -6.80207624E-01 -8.56199501E-03 -7.74837212E-02  8.67159264E-19
 -6.77852477E-03 -8.34918607E-02 -9.98398682E-19 -3.01008887E-03  2.64739786E-02
  8.87413141E-19 -1.61986176E-04  9.18296026E-02  1.75875001E-17  1.77608880E-03
 -7.44695005E-18 -1.00603516E-19 -1.17197999E-03  2.61168942E-04  2.73134813E-03
 -2.27670229E-17 -7.42290204E-19 -3.31579569E-03  5.97398559E-04  1.56227033E-02
 -2.05017939E-17  5.65876392E-19 -1.62611362E-02  1.10258057E-04 -3.60745173E-19
  1.18208148E-04 -6.74985475E-04 -3.99039001E-19 -6.78477570E-18 -5.32802538E-06
 -3.95575889E-04 -1.34622994E-02 -4.70183275E-02  2.34055930E-01 -7.70146338E-03
  2.91009899E-03 -5.51910452E-18 -8.90367425E-02  9.25057079E-02 -2.65696075E-17
 -6.91164051E-03 -3.89284830E-02  2.35051892E-01 -9.18992277E-04 -2.46572208E-03
  4.22610600E-03  7.77047605E-03 -3.72362034E-03 -2.11005366E-02 -2.96687914E-03
 -9.16420434E-03  1.51209714E-18 -2.34887815E-03 -8.11536260E-03  1.24303005E-18
 -1.04323569E-03 -2.26504338E-03  1.08665820E-18 -5.60438048E-05  2.40698554E-03
  7.87210338E-19 -7.12518527E-05 -2.11586835E-19  3.78412284E-20 -6.74641030E-05
  9.04837173E-05 -2.33227128E-04 -7.18267253E-19 -4.66202777E-20 -3.34977096E-04
  2.06963116E-04  3.84442301E-04 -6.88181816E-19 -2.37670801E-19 -9.06101047E-04
  3.81226645E-05  6.57517932E-21  4.09511071E-05  6.74124141E-05  4.73170672E-20
 -2.26534421E-19 -1.85071697E-06 -8.88839112E-05  1.04126665E-03 -3.44385540E-06
  7.70127495E-03 -5.90937113E-04 -3.00539256E-05 -9.11427011E-20 -2.75286688E-03
  2.90624021E-03 -7.69693555E-19  3.31082642E-03  2.79910632E-03  8.04533856E-03
  7.10118097E-04 -1.10633815E-03 -2.83576328E-03  4.69181173E-03  7.80217288E-03
  1.57958173E-03 -1.03279999E-02 -6.47547149E-03  2.09479283E-03 -9.63918193E-19
 -5.12664595E-03  1.35190316E-03 -7.81825251E-19 -2.27698650E-03  2.42234700E-03
 -2.81626767E-19 -1.22306760E-04  1.71170880E-03  3.53098416E-19  3.96614062E-05
 -1.18497260E-19  6.40938714E-20  2.32087745E-05  1.97484488E-04  4.86227288E-05
 -3.91125597E-19  6.57265557E-20  1.48675370E-04  4.51709633E-04  3.45076803E-04
 -3.46843063E-19 -1.18632035E-19 -7.03539437E-06  8.31847618E-05  3.00161044E-20
  8.93777603E-05 -2.37338796E-05  3.59288248E-20 -1.28379448E-19 -4.03952058E-06
 -2.48110287E-05 -2.68637178E-03 -4.30994646E-03  2.90980155E-03  3.00610552E-05
 -7.61756246E-05 -5.41019095E-20 -1.52674429E-03  1.43963651E-03 -3.40400743E-19
  2.26711166E-03  1.80682275E-03  3.66061473E-03  2.30063045E-04  4.91570654E-04
 -2.05226256E-19 -4.72709546E-19  5.93371678E-19  2.90393211E-18 -2.82679888E-18
 -1.54642230E-17  1.24107591E-19 -2.82813222E-18  5.86864529E-03  1.36509880E-19
 -2.78607426E-18  4.98140224E-03 -4.03215138E-20  8.74844426E-20  3.84352653E-03
 -3.92598728E-19  2.27393457E-18  5.31024244E-04  6.99247402E-20  7.46166559E-06
 -5.24101473E-05 -7.78052622E-20  1.26087237E-21  1.70291771E-19  4.20689358E-06
 -2.54287744E-04 -2.27379507E-19 -7.41708586E-20  4.37436510E-19 -1.16176377E-05
 -3.56281595E-04 -4.02779382E-19  3.07626004E-20 -6.40765421E-05  3.04127050E-21
  2.53139590E-21  2.38369288E-05 -5.04737102E-06  4.00603577E-20 -3.88065942E-20
 -4.43994461E-19 -9.66378972E-19  6.42104831E-18 -1.14393871E-19 -3.66016567E-20
  3.18456160E-04 -2.14493171E-18  2.04695983E-18  4.66841913E-05 -3.71173044E-19
 -1.49145438E-18  4.98820505E-18  2.72941437E-19  8.31021245E-20  3.32827798E-04
 -5.70417725E-03 -1.29985570E-02  1.74011271E-02  5.58254770E-02 -3.58823970E-02
 -2.59763395E-01  2.80018636E-03 -2.16646823E-02 -2.15431442E-18  2.21692144E-03
 -2.54503514E-02 -2.26742918E-18  9.84874345E-04  1.42161910E-02  1.82371053E-19
  5.27819857E-05  3.56843071E-02  7.50126939E-18  7.81058483E-04 -2.78379561E-18
  2.43745838E-19 -3.86749647E-04 -8.53781343E-05  1.28060519E-03 -8.62685551E-18
 -1.56679384E-19 -9.13932636E-04 -1.95278543E-04  6.13862741E-03 -7.88348967E-18
 -8.63564226E-19 -5.69557072E-03 -3.58696392E-05  1.33373540E-19 -3.86369721E-05
 -3.34396280E-04  7.12523989E-20 -2.61954842E-18  1.75179580E-06 -1.12812091E-04
 -4.66893121E-03 -1.76188524E-02  8.90355337E-02 -2.75290230E-03  1.52683436E-03
 -1.91075555E-18 -3.39799525E-02  3.52658681E-02 -9.44819552E-18 -6.81051226E-03
 -2.02630319E-02  8.87121615E-02  2.64039338E-03  1.28126326E-03  2.23781280E-18
  3.40861076E-02 -5.72862403E-03 -1.29729715E-02  1.71212412E-02  5.64942959E-02
 -3.85201731E-02 -2.69556245E-01  9.63182785E-04 -2.50595470E-02 -1.75066988E-18
  7.62562335E-04 -2.84971332E-02 -2.03032798E-18  3.38928391E-04  1.33780737E-02
 -9.56892400E-20  1.80824574E-05  3.68222472E-02  7.61415915E-18  7.80469906E-04
 -3.10479155E-18  1.58150877E-19 -4.22918745E-04 -2.93539015E-05  1.26246000E-03
 -9.08403853E-18 -2.58919409E-19 -1.06932873E-03 -6.71327653E-05  6.30962570E-03
 -7.85682431E-18 -7.31101077E-19 -6.08057196E-03 -1.22670300E-05  1.05811079E-19
 -1.32814863E-05 -3.24246678E-04  4.32629273E-20 -2.57591744E-18  6.06063335E-07
 -1.25393899E-04 -5.06845709E-03 -1.84294607E-02  9.25031756E-02 -2.90624158E-03
  1.43970655E-03 -1.84437671E-18 -3.52653749E-02  3.66143081E-02 -9.47448569E-18
 -5.80480011E-03 -1.93383875E-02  9.23928250E-02  2.86752469E-03  1.35519374E-03
  2.03730899E-18  3.53018896E-02  3.66263635E-02 -1.24298619E-18 -3.06638229E-18
  4.59921539E-18  1.55980170E-17 -1.10019912E-17 -7.22779020E-17 -9.58220686E-19
 -6.26266455E-18  8.34115786E-04 -8.61032606E-19 -7.24015161E-18  7.19595650E-04
 -1.02459702E-18  4.29479173E-18  6.27896776E-04 -1.12096307E-18  1.05477881E-17
  1.14547273E-04  2.55385467E-19  1.65090292E-05  6.76922182E-06 -1.91310697E-19
 -8.19286296E-20  4.96311847E-19  9.31002259E-06 -2.79427118E-05 -4.81030365E-19
 -2.52856729E-19  1.80521788E-18 -2.56990275E-05 -9.37355145E-05 -1.53505278E-18
  1.25123700E-19 -1.54738446E-06  2.59897235E-20 -6.82924715E-20  1.19513646E-05
 -1.11665478E-05  7.83248656E-20 -9.54786020E-20 -1.53288828E-18 -4.51508016E-18
  2.78233990E-17 -7.50518262E-19  3.24716441E-19  4.66819585E-05 -9.86355908E-18
  9.79614117E-18  1.43577366E-06 -1.93811448E-18 -6.63678376E-18  2.34164095E-17
  8.94268198E-19  5.23177140E-19  7.84741011E-05  9.84071372E-18  9.63758627E-18
  7.17693839E-05  2.00993835E-01  3.05542173E-01  4.73119256E-01 -2.44097919E-02
 -7.11726060E-02  1.37185933E-01 -6.95701591E-02 -1.54663973E-01  2.00915162E-01
  3.28781757E-01 -7.56016085E-03 -2.57957867E-02  5.82424615E-02  4.74602188E-02
  1.01377061E-01  3.87166705E-02  9.03711970E-02 -1.26129607E-01 -4.15671536E-01
  2.82486334E-01  1.98429810E+00 -5.55625388E-08 -1.31521250E-07  1.53547973E-07
  8.26651613E-07  1.05006974E-07 -2.29760102E-06  1.47713045E-01 -4.52699196E-03
 -1.03677901E-02  1.61147840E-02  1.18506452E-02  9.46839648E-02  1.81200122E-01
  9.38976175E-08  1.93086077E-01  9.51374643E-19  2.23345593E-18 -3.42148184E-18
 -5.22254669E-18 -1.00599425E-17 -7.47596362E-18 -5.77463104E-18 -4.58951115E-17
  1.11199281E-01 -6.34592970E-08 -1.53855017E-07  2.02242374E-07  7.63393992E-07
  8.52627618E-08 -1.87625366E-06  1.16944793E-01 -2.84085135E-08 -3.58702083E-18
  9.25854889E-02 -3.10779696E-04 -2.11412913E-03  8.07486748E-03 -4.86379910E-03
  8.47727409E-02  2.07082197E-01 -9.60601752E-08  1.62177618E-01 -3.82968485E-17
 -1.62119508E-07  1.37908971E-01  4.58362485E-19  1.25117169E-18 -2.41190545E-18
 -3.20325372E-18 -8.69231486E-18 -1.02278326E-17 -5.31213696E-18 -3.85718759E-17
  9.41082639E-02 -3.45044902E-18 -3.23186141E-17  7.96592696E-02 -9.76925439E-08
 -2.21225166E-07  2.82500018E-07  8.21555996E-07 -1.46468353E-07 -2.57479507E-06
  5.19410064E-02 -1.04422042E-07  1.00366294E-17  4.11218265E-02 -2.00081939E-07
  7.09993664E-18  1.82642511E-02 -1.02995422E-02 -2.34119527E-02  3.24710745E-02
  6.28142497E-02  2.73518658E-02 -1.00080160E-01  2.27395162E-07  8.14804280E-02
 -2.58273351E-17  1.41760359E-07  6.29601762E-02 -2.13462603E-17  1.92360187E-07
  5.27280488E-02  9.97111371E-19  2.25165916E-18 -3.11980418E-18 -4.67043686E-18
 -5.42746495E-18 -2.83850697E-18 -6.46449105E-18 -2.67409612E-17  7.08228574E-02
 -5.08833102E-18 -2.23338107E-17  6.00464249E-02 -3.09139033E-18 -1.56298182E-17
  4.58916667E-02  9.92536516E-09  2.58713395E-08 -4.33556145E-08 -1.46092458E-07
  1.17495465E-07  7.60932682E-07  2.78986593E-03  7.02710381E-08  8.22384210E-18
  2.20874393E-03  7.80132374E-08  5.72990948E-18  9.81013178E-04 -3.82289402E-08
 -3.23249806E-18  5.26923802E-05 -6.25310650E-03 -1.48895338E-02  2.17159669E-02
  6.37829938E-02 -3.21170249E-02 -2.71304821E-01  3.46596641E-07 -1.12661775E-02
 -2.60255197E-18  2.76505454E-07 -1.73727663E-02 -1.62972981E-18  3.67399408E-07
  2.08421698E-02 -1.84069919E-18 -1.03699454E-07  3.81725239E-02  1.76321569E-19
  4.05781921E-19 -5.73749465E-19 -1.09437424E-18 -1.73430726E-19  1.81250633E-18
 -2.48488796E-18 -3.42612660E-18  9.41472254E-03 -1.88804120E-18 -2.79599132E-18
  7.99768386E-03 -6.44314534E-18 -2.27599592E-18  6.21059555E-03 -5.20929536E-18
 -5.95571767E-19  8.72319606E-04  4.43415752E-05  1.60470814E-04 -3.58183906E-04
  4.04138266E-04 -4.72649087E-04 -5.79455333E-03  2.98011230E-08  1.84775249E-03
 -1.19276783E-19  2.16323373E-08  1.33550098E-03 -7.91571591E-20  1.49608451E-08
  1.40644651E-03 -1.64634420E-20 -1.90399548E-09  9.53427573E-04 -4.93168142E-21
  5.86257290E-05 -1.69295968E-19 -4.00866007E-19  5.18313774E-19  2.17152289E-18
 -1.45066286E-18 -1.00919949E-17  4.91023168E-19 -8.43864016E-19 -9.61952943E-09
  3.86192593E-19 -1.03937270E-18 -8.35912557E-09  1.63581248E-19  6.74835946E-19
 -8.03921043E-09  7.31959890E-21  1.69636073E-18 -1.42930726E-09  2.30787171E-20
  7.75012110E-06 -1.28501710E-20 -3.77304913E-20  7.56561863E-20 -4.21162715E-20
  3.34664884E-19  1.19726677E-18 -4.52431221E-19  3.75260822E-19 -1.31161620E-03
 -4.43554749E-19  3.44123243E-19 -1.09312112E-03 -2.02641203E-18  9.89575685E-20
 -7.14424667E-04 -1.75050330E-18 -1.53608470E-19 -7.64053629E-05 -2.98899135E-21
 -3.35231193E-11  3.44009751E-05 -1.24391174E-04 -3.32770423E-04  5.96820764E-04
  5.11659906E-04  1.25835442E-03  3.09150114E-03 -3.70815050E-08  1.58887855E-03
 -4.46938368E-19 -2.97320500E-08  1.37707906E-03 -3.77205804E-19 -1.50812293E-08
  5.71311727E-04 -2.57186660E-19  5.43310713E-10 -3.11603846E-04 -2.90927957E-20
  3.37063736E-06 -2.03532671E-22  7.76222340E-21  1.72674542E-05 -4.04990666E-09
 -9.38433217E-09  1.40943473E-08  1.81808817E-08 -2.24806867E-08 -8.02256452E-08
 -4.50482981E-03 -2.53757269E-08  3.74996958E-19 -3.56648518E-03 -2.00023284E-08
  3.58306658E-19 -1.58405369E-03 -2.83627499E-09  5.27821946E-19 -8.50830147E-05
  9.50641730E-09  9.94696157E-20 -6.82157843E-10 -1.63298398E-20  3.87095947E-20
  8.81880136E-10  1.37384559E-04  9.03397928E-04  1.82588774E-03 -1.85468778E-03
 -1.02622188E-03 -9.24149207E-04 -9.42088539E-03  2.20160952E-08  4.65220522E-03
  1.02059242E-20  1.21746696E-08  3.52994592E-03  4.31292755E-20  1.37932005E-08
  2.97900853E-03  1.09496754E-19 -3.72358144E-09  1.64748417E-03  1.24668571E-21
  1.31249188E-04 -7.94500107E-21 -1.67691016E-20  1.03686683E-05 -5.19671648E-10
  3.08124982E-04 -5.48339569E-19 -1.34193592E-18  1.99768196E-18  6.98923414E-18
 -4.64822902E-18 -3.34913012E-17  1.11394512E-18 -2.49731310E-18 -2.36488468E-08
  8.80477949E-19 -3.06538387E-18 -2.02232298E-08  3.86532057E-19  2.03352394E-18
 -1.68045582E-08  1.98652337E-20  4.79452701E-18 -2.22141551E-09  1.02453626E-19
  4.37051583E-06  1.25315955E-10 -4.02846462E-20 -3.47353473E-20  1.47804971E-19
  2.46465938E-06 -2.48415965E-19 -5.57084325E-19  7.39410777E-19  1.42597897E-18
  5.91974947E-20 -3.04666186E-18  2.27389912E-19  1.42534133E-18 -5.11776221E-03
 -1.50296360E-20  1.08964845E-18 -4.31333911E-03 -5.39889934E-19  1.19095959E-18
 -3.13007239E-03 -6.48945677E-19  5.61219345E-19 -4.03150028E-04  1.00071543E-20
  3.14309484E-10  7.97604478E-05  1.65118535E-20  3.26649159E-20 -5.94795340E-21
  8.08823011E-10  2.58546600E-04 -9.12010882E-04 -2.01764422E-03  2.67642687E-03
  3.23493470E-03  5.13716593E-03  7.74229641E-03 -4.71745120E-08  8.41792124E-03
 -2.04923227E-18 -4.03659405E-08  7.04308213E-03 -1.71954867E-18 -2.06239481E-08
  3.75936610E-03 -1.21458941E-18  2.12764399E-09 -4.31611867E-04 -1.63668395E-19
  6.37833717E-05  3.81993534E-20  1.85768045E-20  7.84368774E-05  6.37846381E-10
  1.50358073E-04 -6.67560226E-20  7.40375375E-20  3.98587606E-04  1.24412148E-08
  2.55557311E-08 -2.55101792E-08 -2.75122934E-08 -8.63952728E-08 -2.51244975E-07
 -1.03039998E-02 -4.11157983E-08  2.60888574E-19 -8.15770281E-03 -3.33062919E-08
  3.72813592E-19 -3.62324208E-03  2.36997870E-09  1.24708021E-18 -1.94612318E-04
  3.15386976E-08  4.03100983E-19 -4.67790925E-10 -2.61833419E-20  1.69062462E-19
  1.77107397E-09  3.14242832E-04  1.65223679E-09 -7.31499634E-20  1.37396377E-19
  1.14635474E-09  7.18774788E-04 -1.53948244E-03 -3.54112932E-03  4.88682453E-03
  1.26326219E-02 -4.45583999E-03 -4.65080158E-02  6.45901936E-08 -5.00718183E-04
  4.96309612E-19  5.14112757E-08 -1.82858852E-03  5.28211588E-19  6.58714810E-08
  4.39978177E-03  3.20369386E-19 -1.76713453E-08  6.67081950E-03 -1.57749716E-20
  1.74321613E-04  1.18702872E-19 -3.45823617E-20 -3.83592889E-05  1.48223654E-09
  3.01119463E-04  7.27850291E-19  5.77819925E-20  3.75452097E-06  4.74546530E-09
  1.18431549E-03 -2.80362584E-18 -6.75232884E-18  1.00453761E-17  3.16437557E-17
 -2.03862003E-17 -1.48427849E-16  1.96443817E-19 -1.20469963E-17 -2.72772320E-08
  1.59506820E-19 -1.41895454E-17 -2.30232114E-08  8.32517840E-20  8.07659912E-18
 -1.64340247E-08  6.60246436E-21  1.99289256E-17 -1.43172217E-09  4.63964419E-19
 -1.20643110E-05  2.79543472E-10 -2.42617223E-19 -3.87132309E-21  8.39070324E-19
 -6.80341134E-06  9.70596405E-10 -6.26673021E-19 -2.62320651E-20  3.69830715E-18
  1.87800419E-05 -1.37912834E-20 -7.21839009E-20  2.12938829E-19  3.81582021E-19
  6.17291467E-20 -2.87406546E-19  2.82755204E-18  2.57796822E-18 -6.17963010E-03
  2.05961147E-18  2.12628183E-18 -5.25280972E-03  8.74318861E-18  1.59062480E-18
 -4.09865748E-03  6.90106047E-18  3.17714103E-19 -5.93660193E-04  3.44256869E-21
  7.48775961E-10  4.52864506E-05  2.08744322E-20 -6.34250465E-20  8.28970182E-21
  1.09097158E-09  2.65676867E-04  1.26189143E-19 -3.72653869E-19 -9.87234271E-22
  8.61157881E-10  4.17708294E-04  3.35531346E-04  5.45451848E-04 -1.75561754E-05
 -4.76939010E-03  1.13178773E-02  4.45513891E-02 -2.79039376E-08  1.54250419E-02
 -2.86508104E-18 -2.88896902E-08  1.38575044E-02 -2.47645839E-18 -4.70292760E-08
  3.67978262E-03 -1.67962722E-18  1.72568838E-08 -5.20271754E-03 -1.96305876E-19
  1.37505253E-05  8.95233064E-20  3.57792041E-20  1.58329425E-04 -3.00189537E-09
  1.16190732E-04 -5.41525422E-19  3.26361006E-20  6.85852967E-04 -7.43524235E-09
 -7.92228179E-04 -3.71829251E-18  1.75978488E-19  1.73957687E-03 -8.99410679E-09
 -1.98540179E-08  2.42241032E-08  1.15873703E-07 -1.46606274E-07 -7.47847711E-07
 -1.89748525E-03 -1.44962954E-07 -3.58962644E-18 -1.50224388E-03 -1.38833208E-07
 -2.53647159E-18 -6.67221322E-04 -2.19936563E-09  1.15920555E-18 -3.58379280E-05
  9.60417436E-08  2.16786917E-18  1.01160146E-09 -1.84282917E-22  7.21500752E-19
 -1.32915008E-09  5.78679297E-05  1.45044465E-09 -1.08198419E-20  2.53236826E-19
 -5.79173583E-09  1.32362634E-04  1.57183543E-08 -1.19557936E-20 -2.90206907E-18
 -2.18742202E-08  2.43746266E-05  2.65742795E-20  6.02211585E-20 -7.86198465E-20
 -2.44342355E-19  2.86541319E-19  1.20781119E-18 -3.14691093E-19  4.75194629E-19
 -1.28608287E-03 -2.13201117E-19  4.33950805E-19 -1.08638385E-03 -1.95479259E-18
  1.45686921E-19 -8.05112456E-04 -1.55077538E-18 -1.49913733E-19 -9.90037863E-05
 -2.95310796E-21  1.09672630E-10  1.79123835E-05  6.03115769E-21 -6.83803205E-21
 -1.03433569E-20  3.73256655E-10  5.95991365E-05  1.80493769E-20  3.92259778E-20
 -3.80389698E-20  4.55236581E-10  5.91180962E-05  4.28304840E-20  6.58346435E-19
  1.73286861E-05 -1.95031005E-09 -4.92581505E-09  8.38697129E-09  1.45260276E-08
 -1.16529257E-08 -6.22284395E-08 -2.03879594E-03 -7.29810169E-09  2.36791333E-21
 -1.61411991E-03 -6.42720337E-09  1.81648529E-20 -7.16911039E-04  3.31746776E-09
  1.13694577E-19 -3.85068720E-05  8.33537778E-09  5.81274138E-20 -1.38706390E-10
 -7.37836460E-21  1.93984832E-20  4.04022195E-10  6.21775056E-05  1.12488447E-10
 -1.57126251E-20  9.42267095E-21  4.62196189E-10  1.42220025E-04  1.40954566E-09
 -1.76781550E-21 -6.59858373E-20 -1.52403676E-09  2.61898684E-05  1.02739400E-20
  2.81402964E-05 -1.46521179E-04 -2.80665979E-04  2.33353625E-04 -9.21797153E-05
  7.91261839E-06  2.42450555E-03 -5.40270977E-09 -1.52910571E-03  4.15960794E-19
 -2.88495767E-09 -1.17552467E-03  3.40432243E-19 -3.67983652E-09 -9.55783192E-04
  2.27051875E-19  9.63079027E-10 -4.52993940E-04  2.89114799E-20 -3.65390862E-05
 -6.30322813E-21 -2.06882709E-21 -6.03547719E-06  1.25638473E-10 -8.44016205E-05
 -4.34809706E-20 -1.80336491E-20 -5.62831909E-05 -3.83556803E-10 -8.66510051E-05
 -2.06209245E-19 -1.80489097E-20 -5.28128294E-05 -2.21650070E-10 -3.31454113E-21
 -4.37965039E-11  2.39615794E-05 -6.94687322E-20 -1.42722192E-19  1.52756848E-19
  1.11668023E-19  1.75167258E-19  6.57466449E-19 -6.81660177E-19 -3.49915396E-19
  3.44077013E-04 -5.06494473E-19 -2.68543043E-19  2.95343464E-04 -1.92281258E-18
 -2.43656221E-19  2.48452274E-04 -1.47435536E-18 -1.31495977E-19  4.26124524E-05
 -6.92046847E-21  4.71807550E-11  9.91851949E-07 -5.11891644E-22  1.29830936E-20
 -1.88355284E-20  4.70569798E-11 -1.27172728E-05 -1.39346685E-20  8.00480499E-20
 -1.93034724E-20 -1.23536980E-10 -3.37391948E-05 -1.43639970E-20  6.22630694E-19
 -1.46505814E-06  1.52819071E-20  4.74175460E-21  3.95868773E-06  8.70640551E-20
  2.11621851E-19 -2.78871195E-19 -1.21600455E-18  7.97779003E-19  5.57058109E-18
  2.17196345E-19  4.54716312E-19  7.08859777E-10  1.73683286E-19  5.70877108E-19
  6.55960847E-10  8.24701714E-20 -3.94556841E-19  1.07051268E-09  5.38640865E-21
 -9.75996115E-19  4.97227650E-10 -1.18952498E-20 -5.24214901E-06  5.70976984E-12
 -1.86566022E-21 -5.70804114E-21  1.14828712E-20 -2.95619834E-06 -1.20987658E-10
 -3.09141822E-20 -2.06091966E-20 -5.09709861E-20  8.16024871E-06 -3.64818339E-10
 -8.89036925E-20 -6.91536924E-21  5.56254019E-11 -2.59115020E-21  2.70518223E-21
 -7.52913904E-12  3.54576733E-06  3.20324763E-09  6.44533299E-09 -6.65915920E-09
 -4.01556206E-09 -9.85597446E-09 -3.99515131E-08  9.21450562E-05 -2.24916334E-09
  3.14614700E-21  7.29514747E-05 -2.98347904E-09  1.07678494E-20  3.24013830E-05
  1.77997964E-09  5.95489091E-20  1.74034968E-06  5.39853220E-09  2.64447273E-20
  2.31070294E-10 -9.69213211E-22  9.83404134E-21 -1.18838106E-10 -2.81016341E-06
  4.93885271E-10 -2.36985496E-23  6.10418722E-21 -2.79354102E-10 -6.42775079E-06
  8.64602123E-10  2.11144812E-21 -2.84197206E-20 -8.80413474E-10 -1.18367259E-06
  4.86712425E-21 -1.27182380E-06 -1.14272539E-10  5.49877464E-21  9.98357502E-22
  5.74811222E-08  4.68467392E-04  9.98215991E-04 -1.17366108E-03 -1.65593848E-03
 -1.67192007E-04  8.96341666E-04  8.29490286E-09  1.01957316E-03 -2.01099623E-19
  5.07821199E-09  8.69435276E-04 -1.71463455E-19  1.07284951E-09  3.12211242E-04
 -1.10454150E-19  4.30756196E-10 -7.45780099E-05 -1.67655168E-20  2.12470302E-05
 -2.51842052E-20 -1.43695013E-21  2.33774010E-06 -4.76916266E-10  5.97308092E-05
 -2.24394614E-20  5.18926500E-22  2.40442777E-05 -3.14954556E-10 -1.50584693E-05
 -2.76118532E-20  1.60258526E-20  7.01831648E-05 -7.24303269E-10  1.47556080E-21
 -1.85173903E-10 -1.51348578E-05 -5.19431113E-21  1.65332758E-20  9.28603338E-11
  1.85843401E-05 -4.80935938E-03 -1.14922352E-02  1.67137655E-02  1.45787402E-02
  2.63514436E-03  4.09677161E-02  5.64967393E-02 -3.94266369E-02 -3.66106404E-18
  4.47286539E-02 -3.10376138E-02 -3.32133717E-18  1.98661856E-02 -2.16968861E-02
 -3.22527278E-18  1.06707667E-03 -8.41311907E-03 -2.77239105E-19 -9.31661637E-04
 -4.02344470E-20  1.66122112E-19 -1.32236012E-04 -1.72298936E-03 -2.24817148E-03
 -4.34242904E-19  2.41241670E-19 -1.30955502E-03 -3.94105381E-03 -1.59153596E-03
 -3.32642675E-18  1.67320142E-20 -1.64323650E-03 -7.25743870E-04  1.81189403E-19
 -7.79792836E-04  6.18967575E-04  9.36384977E-20  2.10173019E-19  3.52402063E-05
 -4.79388583E-04  3.85099828E-02  2.71003687E-04  7.16056422E-04 -1.56149894E-03
 -2.33794514E-02  6.05434090E-03  1.40177926E-01  6.97644485E-02 -4.47635483E-02
 -7.13210031E-18  5.52327308E-02 -3.22659446E-02 -6.02149015E-18  2.45314711E-02
 -3.50285702E-02 -1.98809276E-18  1.31770492E-03 -2.32624846E-02  1.74030017E-18
 -1.32933853E-03 -7.78884554E-19  9.27897503E-19 -1.30166530E-04 -2.12762457E-03
 -2.90711418E-03 -2.19620007E-18  4.07616391E-19 -1.70565737E-03 -4.86658524E-03
 -4.32800183E-03 -1.04412541E-17 -2.49973892E-18 -4.21874722E-04 -8.96209591E-04
  8.20175712E-19 -9.62924420E-04  8.30727957E-04  6.46286338E-19  6.97079440E-19
  4.35154699E-05 -4.11446019E-04  4.71094132E-02  6.37948913E-02 -1.55895101E-02
 -3.39139400E-02  4.10635653E-02  1.38942287E-01 -1.02722623E-01 -6.80198173E-01
  8.56360712E-03 -7.74832031E-02 -2.30669208E-17  6.77985788E-03 -8.34911656E-02
 -1.41740526E-17  3.01186408E-03  2.64733167E-02  1.21690513E-17  1.61466194E-04
  9.18282847E-02  1.89151740E-17  1.77605901E-03  3.43229642E-18  5.56546205E-18
 -1.17197210E-03 -2.61113453E-04  2.73129354E-03  1.14673021E-17  2.39631912E-18
 -3.31578034E-03 -5.97229863E-04  1.56224746E-02  5.08328929E-17 -2.63082363E-17
 -1.62609459E-02 -1.09733196E-04  5.54707412E-18 -1.18166425E-04 -6.74970632E-04
  5.39892551E-18 -1.85901211E-18  5.35511734E-06 -3.95572232E-04 -6.91187500E-03
 -3.89291482E-02  2.35045482E-01  9.18972529E-04  2.46567954E-03 -4.22605244E-03
 -7.77045004E-03  3.72368260E-03  2.11008158E-02 -2.96682757E-03  9.16422544E-03
  2.62752444E-19 -2.34885249E-03  8.11539150E-03  1.97232393E-19 -1.04326045E-03
  2.26503570E-03  2.78244733E-19 -5.60265010E-05 -2.40702310E-03  9.29839669E-20
  7.12495894E-05 -7.40456313E-20 -9.87829552E-21  6.74662755E-05  9.04775430E-05
  2.33223675E-04 -3.28319908E-19 -9.81897688E-20  3.34981194E-04  2.06953697E-04
 -3.84448337E-04 -1.58778952E-18 -7.27951048E-20  9.06107441E-04  3.81002643E-05
  1.50566373E-20  4.09483426E-05 -6.74116617E-05  4.02139716E-21  2.58910653E-20
 -1.85079591E-06  8.88829718E-05 -3.31075197E-03 -2.79900879E-03 -8.04534375E-03
  7.10116087E-04 -1.10633673E-03 -2.83576652E-03  4.69182795E-03  7.80229923E-03
  1.57947948E-03 -1.03286732E-02  6.47549201E-03  2.09466045E-03 -2.55975901E-18
  5.12666471E-03  1.35176656E-03 -2.13859869E-18  2.27701939E-03  2.42233942E-03
 -1.67813999E-18  1.22298933E-04  1.71179600E-03 -2.65980879E-19  3.96641929E-05
  8.69287165E-20  1.60223892E-20  2.32040087E-05 -1.97483244E-04  4.86242080E-05
  2.35172657E-19  1.43042254E-19  1.48664928E-04 -4.51709057E-04  3.45091314E-04
  7.93646136E-19  1.92892195E-19 -7.05479935E-06 -8.31801122E-05  1.60816506E-20
 -8.93767412E-05 -2.37340337E-05 -2.52067463E-20 -2.84259114E-20  4.03943588E-06
 -2.48108984E-05  2.26707631E-03  1.80675333E-03  3.66079874E-03 -2.30068638E-04
  4.91573309E-04 -2.41463956E-20 -4.12312201E-20  6.26858413E-20  7.20527992E-19
 -1.17425284E-18 -6.92746778E-18 -1.82057347E-18 -2.11213156E-18  5.86861761E-03
 -1.41730744E-18 -1.91753203E-18  4.98137918E-03 -2.48706546E-18 -7.62470162E-19
  3.84351217E-03 -1.85297182E-18  4.96560057E-19  5.31023438E-04  3.96374104E-20
 -7.46311712E-06 -5.24095607E-05 -4.16640492E-20  7.94134440E-20  1.28379381E-19
 -4.20961992E-06 -2.54286437E-04 -1.74820806E-19  2.31138349E-19  3.08238415E-19
  1.16151889E-05 -3.56281111E-04 -5.51675526E-19  7.61525573E-19 -6.40760565E-05
  3.47946883E-20 -6.39363045E-21  2.38368327E-05  5.04768864E-06  1.19828088E-20
  1.44898792E-20 -9.11853719E-19 -4.06345054E-19  9.14679990E-18 -2.01959772E-20
 -1.55650360E-19  3.32825898E-04  5.70415381E-03  1.29985150E-02 -1.74011001E-02
 -5.58254118E-02  3.58824194E-02  2.59763301E-01  2.79954444E-03  2.16647131E-02
  2.16642599E-18  2.21639964E-03  2.54503693E-02  9.02260916E-19  9.84184332E-04
 -1.42161659E-02 -1.11413531E-18  5.29804955E-05 -3.56842906E-02 -2.45058900E-18
 -7.81057110E-04 -1.67150936E-18 -5.11866848E-19  3.86748516E-04 -8.53978062E-05
 -1.28060395E-03 -4.57125584E-18 -2.97677353E-19  9.13932331E-04 -1.95341156E-04
 -6.13862402E-03 -1.88862072E-17  3.79497877E-18  5.69557143E-03 -3.60631178E-05
 -7.26048623E-19 -3.86528054E-05  3.34395892E-04 -7.32736103E-19  9.76661596E-19
  1.74137915E-06  1.12812360E-04  6.81069228E-03  2.02635821E-02 -8.87108913E-02
  2.64043182E-03 -1.28135056E-03 -1.48173851E-18  3.40860806E-02 -5.72869353E-03
 -1.29731413E-02  1.71214985E-02  5.64950973E-02 -3.85206596E-02 -2.69559910E-01
 -9.62573949E-04 -2.50597945E-02 -9.93297659E-19 -7.62064156E-04 -2.84974436E-02
 -1.08375964E-19 -3.38234159E-04  1.33783049E-02  3.76862134E-19 -1.82894373E-05
  3.68227552E-02  1.62887681E-18  7.80481452E-04  1.45326603E-18  2.23386388E-19
 -4.22923297E-04  2.93762288E-05  1.26247987E-03  4.58907788E-18  1.86030272E-19
 -1.06933841E-03  6.72019996E-05  6.30971351E-03  2.00244629E-17 -2.76075045E-18
 -6.08064861E-03  1.24707662E-05  4.98996293E-19  1.32985969E-05 -3.24251980E-04
  5.11892878E-19 -8.15964370E-19 -5.95245269E-07 -1.25395283E-04 -5.80511002E-03
 -1.93392797E-02  9.23927895E-02 -2.86759849E-03  1.35530569E-03  1.46223141E-18
 -3.53023579E-02  3.66273591E-02  1.25826412E-18  2.92838834E-18 -3.94725817E-18
 -1.37811104E-17  9.53482259E-18  6.47190658E-17 -1.55171428E-18  5.79891402E-18
  8.34142142E-04 -1.12124084E-18  6.76749906E-18  7.19618911E-04 -5.97444220E-18
 -3.67393605E-18  6.27921824E-04 -4.75436432E-18 -9.56891129E-18  1.14553253E-04
 -1.65785458E-19 -1.65093991E-05  6.76965359E-06  6.88637146E-20  2.54924921E-20
 -1.73734237E-19 -9.31001724E-06 -2.79437002E-05  7.92823748E-20  1.98580729E-19
 -1.26259629E-18  2.56994709E-05 -9.37396273E-05  7.66232641E-19  1.99326089E-18
 -1.54728114E-06  4.19456335E-20  6.02195204E-20  1.19514832E-05  1.11669770E-05
  2.09096824E-20  7.24085382E-20  1.37761288E-18  6.91656954E-18 -3.97736084E-18
  6.54815082E-19 -4.05404388E-19  7.84772317E-05  6.60169602E-18 -7.04801582E-18
  7.17730766E-05 -4.80945039E-03 -1.14924533E-02  1.67141188E-02  1.45791804E-02
  2.63484391E-03  4.09661558E-02 -5.64973132E-02 -3.94266350E-02  1.36233118E-17
 -4.47290241E-02 -3.10375830E-02  1.13355124E-17 -1.98664243E-02 -2.16966799E-02
  7.91516299E-18 -1.06704938E-03 -8.41289794E-03  9.54096710E-19 -9.31671449E-04
 -3.99945663E-19 -6.58155019E-20 -1.32209077E-04  1.72300943E-03 -2.24816622E-03
 -1.27737149E-18 -4.74335446E-19 -1.30951224E-03  3.94105774E-03 -1.59149742E-03
 -3.50120511E-18 -5.55512835E-19 -1.64326376E-03  7.25749786E-04 -2.03794894E-19
  7.79797347E-04  6.18964998E-04  1.81609136E-19  3.32606503E-20 -3.52467524E-05
 -4.79396487E-04 -4.70768291E-03 -6.25768514E-03 -1.34615567E-02 -1.04128429E-03
 -2.68636383E-03  4.92568696E-19  4.66872291E-03 -5.06833292E-03  1.10476009E-18
  3.85101852E-02  2.70889261E-04  7.15787430E-04 -1.56107653E-03 -2.33785978E-02
  6.05361126E-03  1.40173499E-01 -6.97650822E-02 -4.47634894E-02  2.00154534E-17
 -5.52331526E-02 -3.22659339E-02  1.59752366E-17 -2.45319291E-02 -3.50280643E-02
  8.42287765E-18 -1.31759844E-03 -2.32618520E-02 -6.73551474E-19 -1.32933758E-03
 -1.23784943E-18 -7.54219246E-19 -1.30136086E-04  2.12763121E-03 -2.90708105E-03
 -3.24566837E-18 -1.12080437E-18 -1.70560531E-03  4.86655824E-03 -4.32789196E-03
 -1.06339175E-17  1.83357302E-18 -4.21947984E-04  8.96152255E-04 -7.58227933E-19
  9.62919299E-04  8.30717724E-04 -3.12456865E-19  4.88594111E-19 -4.35246180E-05
 -4.11453159E-04 -6.25763902E-03 -2.10521336E-03 -4.70161229E-02  3.41188591E-06
 -4.30993902E-03 -9.00395609E-20  1.76182639E-02 -1.84291394E-02  3.15464546E-18
  4.71092828E-02  6.37940767E-02 -1.55897555E-02 -3.39144809E-02  4.10642510E-02
  1.38944375E-01 -1.02723856E-01 -6.80207624E-01 -8.56199501E-03 -7.74837212E-02
  3.26945749E-17 -6.77852477E-03 -8.34918607E-02  2.47591449E-17 -3.01008887E-03
  2.64739786E-02 -8.70783269E-18 -1.61986176E-04  9.18296026E-02 -2.04424909E-17
  1.77608880E-03  3.34441598E-18 -6.57190578E-18 -1.17197999E-03  2.61168942E-04
  2.73134813E-03  1.13203395E-17 -4.84389342E-19 -3.31579569E-03  5.97398559E-04
  1.56227033E-02  5.08584075E-17  2.70044288E-17 -1.62611362E-02  1.10258057E-04
 -6.55023198E-18  1.18208148E-04 -6.74985475E-04 -5.94175550E-18 -1.86356115E-18
 -5.32802538E-06 -3.95575889E-04 -1.34622994E-02 -4.70183275E-02  2.34055930E-01
 -7.70146338E-03  2.91009899E-03 -4.43910213E-18 -8.90367425E-02  9.25057079E-02
 -4.06284827E-17 -6.91164051E-03 -3.89284830E-02  2.35051892E-01 -9.18992277E-04
 -2.46572208E-03  4.22610600E-03  7.77047605E-03 -3.72362034E-03 -2.11005366E-02
 -2.96687914E-03 -9.16420434E-03  2.12553390E-18 -2.34887815E-03 -8.11536260E-03
  1.81552957E-18 -1.04323569E-03 -2.26504338E-03  1.16384713E-18 -5.60438048E-05
  2.40698554E-03  1.72616451E-19 -7.12518527E-05  4.86758338E-20 -2.28289936E-20
 -6.74641030E-05  9.04837173E-05 -2.33227128E-04  2.80386504E-19 -5.30192765E-20
 -3.34977096E-04  2.06963116E-04  3.84442301E-04  1.58867123E-18 -1.76187992E-19
 -9.06101047E-04  3.81226645E-05 -1.78688611E-20  4.09511071E-05  6.74124141E-05
  3.45587163E-20 -3.07972328E-20 -1.85071697E-06 -8.88839112E-05  1.04126665E-03
 -3.44385540E-06  7.70127495E-03 -5.90937113E-04 -3.00539256E-05  1.97977663E-19
 -2.75286688E-03  2.90624021E-03 -5.50453686E-19  3.31082642E-03  2.79910632E-03
  8.04533856E-03  7.10118097E-04 -1.10633815E-03 -2.83576328E-03  4.69181173E-03
  7.80217288E-03  1.57958173E-03 -1.03279999E-02 -6.47547149E-03  2.09479283E-03
 -6.55951876E-19 -5.12664595E-03  1.35190316E-03 -5.17796962E-19 -2.27698650E-03
  2.42234700E-03 -4.16053683E-19 -1.22306760E-04  1.71170880E-03 -4.68089665E-20
  3.96614062E-05  3.61161625E-20  3.41867174E-21  2.32087745E-05  1.97484488E-04
  4.86227288E-05  1.33121406E-19  4.64823413E-20  1.48675370E-04  4.51709633E-04
  3.45076803E-04  7.88464451E-19  7.21024297E-21 -7.03539437E-06  8.31847618E-05
  8.32154898E-22  8.93777603E-05 -2.37338796E-05  1.06566348E-20 -4.22201737E-20
 -4.03952058E-06 -2.48110287E-05 -2.68637178E-03 -4.30994646E-03  2.90980155E-03
  3.00610552E-05 -7.61756246E-05  3.88127105E-20 -1.52674429E-03  1.43963651E-03
 -3.33378729E-19  2.26711166E-03  1.80682275E-03  3.66061473E-03  2.30063045E-04
  4.91570654E-04  2.69980442E-19  6.70401158E-19 -1.10325266E-18 -2.38794753E-18
  8.39464736E-19  8.64391939E-18 -4.14007610E-19 -1.21490025E-18  5.86864529E-03
 -3.08644408E-19 -8.15365885E-19  4.98140224E-03 -2.00986409E-18 -1.55795635E-18
  3.84352653E-03 -1.83005638E-18 -1.07137564E-18  5.31024244E-04 -2.87165994E-20
  7.46166559E-06 -5.24101473E-05  8.28671457E-21  3.39067053E-20 -7.88660612E-20
  4.20689358E-06 -2.54287744E-04  8.62060193E-21  1.48552457E-19 -2.96077064E-19
 -1.16176377E-05 -3.56281595E-04  3.64628592E-19  7.55193463E-19 -6.40765421E-05
  1.42212524E-20  3.18643711E-20  2.38369288E-05 -5.04737102E-06  1.04029332E-20
 -2.35591342E-20  1.10487348E-19  1.02686357E-18  3.84316261E-18  1.67137878E-19
 -1.57046745E-19  3.18456160E-04 -1.02280981E-19 -4.95707854E-19  4.66841913E-05
  4.69546307E-19  2.38751209E-20 -9.96479276E-18 -5.67266034E-20 -1.00842631E-19
  3.32827798E-04 -5.70417725E-03 -1.29985570E-02  1.74011271E-02  5.58254770E-02
 -3.58823970E-02 -2.59763395E-01  2.80018636E-03 -2.16646823E-02  3.66337304E-18
  2.21692144E-03 -2.54503514E-02  3.20379122E-18  9.84874345E-04  1.42161910E-02
 -6.43274603E-19  5.27819857E-05  3.56843071E-02 -3.00376064E-18  7.81058483E-04
  1.69064207E-18 -8.31636436E-19 -3.86749647E-04 -8.53781343E-05  1.28060519E-03
  4.61369909E-18  5.25039053E-19 -9.13932636E-04 -1.95278543E-04  6.13862741E-03
  1.88927338E-17  3.96058266E-18 -5.69557072E-03 -3.58696392E-05 -1.05496052E-18
 -3.86369721E-05 -3.34396280E-04 -9.23243446E-19 -9.68828402E-19  1.75179580E-06
 -1.12812091E-04 -4.66893121E-03 -1.76188524E-02  8.90355337E-02 -2.75290230E-03
  1.52683436E-03 -3.81593273E-19 -3.39799525E-02  3.52658681E-02 -1.19143918E-17
 -6.81051226E-03 -2.02630319E-02  8.87121615E-02  2.64039338E-03  1.28126326E-03
 -1.70660759E-18  3.40861076E-02 -5.72862403E-03 -1.29729715E-02  1.71212412E-02
  5.64942959E-02 -3.85201731E-02 -2.69556245E-01  9.63182785E-04 -2.50595470E-02
  2.60043088E-18  7.62562335E-04 -2.84971332E-02  2.55841925E-18  3.38928391E-04
  1.33780737E-02  3.38918609E-19  1.80824574E-05  3.68222472E-02 -2.07389856E-18
  7.80469906E-04  1.46632371E-18 -5.04754978E-19 -4.22918745E-04 -2.93539015E-05
  1.26246000E-03  4.60724112E-18  6.94673247E-19 -1.06932873E-03 -6.71327653E-05
  6.30962570E-03  2.00162645E-17  2.77935352E-18 -6.08057196E-03 -1.22670300E-05
 -8.09283546E-19 -1.32814863E-05 -3.24246678E-04 -6.74081108E-19 -8.17676887E-19
  6.06063335E-07 -1.25393899E-04 -5.06845709E-03 -1.84294607E-02  9.25031756E-02
 -2.90624158E-03  1.43970655E-03  2.58717964E-19 -3.52653749E-02  3.66143081E-02
 -1.08678921E-17 -5.80480011E-03 -1.93383875E-02  9.23928250E-02  2.86752469E-03
  1.35519374E-03 -1.66790579E-18  3.53018896E-02  3.66263635E-02 -5.81500554E-19
 -1.47673307E-18  2.24160794E-18  7.94053153E-18 -4.80931668E-18 -3.59797332E-17
 -1.73645865E-18 -3.43297988E-18  8.34115786E-04 -1.27838259E-18 -3.98372365E-18
  7.19595650E-04 -6.07775090E-18  1.95761155E-18  6.27896776E-04 -4.76596596E-18
  5.52661741E-18  1.14547273E-04  9.28593206E-20  1.65090292E-05  6.76922182E-06
 -2.28833597E-20  2.53614308E-20  4.52730820E-20  9.31002259E-06 -2.79427118E-05
  6.55006031E-21  2.45856139E-19  5.91696845E-19 -2.56990275E-05 -9.37355145E-05
 -1.68432495E-19  2.02164349E-18 -1.54738446E-06  4.19368396E-20 -3.15765226E-20
  1.19513646E-05 -1.11665478E-05  1.53605880E-20 -6.65755640E-20 -6.89649506E-19
 -1.38585646E-18  3.03245443E-17 -2.55463997E-19  1.69680303E-19  4.66819585E-05
 -8.11373868E-18  6.99790373E-18  1.43577366E-06 -7.53262154E-19 -4.95212940E-18
 -6.43483010E-18  3.43188957E-19  2.24827945E-19  7.84741011E-05  2.79653938E-18
  3.20409115E-18  7.17693839E-05
G to E trans densities                     R   N=        6728
  6.18297760E-20  2.15800634E-19 -2.43488506E-19 -6.00252455E-19 -2.65333698E-18
  4.25208048E-20 -9.34338198E-18  4.76462904E-19  1.40858506E-03 -1.65212054E-17
  3.43005103E-19  9.26567833E-04 -6.65048425E-18  2.53523268E-19 -2.29619408E-03
 -8.91806412E-18  5.56581859E-19 -4.27412474E-04  5.23960622E-20  4.40086051E-09
 -2.52736183E-04  3.40391550E-20 -2.67077765E-18  8.33517393E-20  1.43231391E-08
 -7.88822880E-04  1.76103018E-19 -5.69605017E-18  2.33597013E-19  5.76994018E-09
  6.63137252E-05  1.62084545E-19 -5.89782484E-19  5.15182849E-05  2.53179632E-19
  2.18222003E-21  3.22583069E-06  1.84278293E-09  1.25917731E-19  1.58190247E-20
  4.40932496E-18  1.40094139E-17  2.96852942E-17 -4.62309641E-19  3.31491347E-19
 -2.53389449E-04 -4.04453879E-18  2.74042620E-18  4.44234741E-06 -4.03900553E-18
 -1.29275492E-17 -2.62609028E-17 -4.74518211E-19 -3.66133445E-19 -2.53385477E-04
 -3.24743428E-18 -2.23300716E-18  4.45134169E-06  1.66377344E-19  5.04944441E-19
 -6.35780752E-19 -1.31223602E-18 -6.40054014E-18 -5.50670689E-20 -2.44134335E-17
  1.23792193E-18  3.42102325E-03 -3.67655777E-17  6.78590710E-19  2.10579971E-03
 -1.80398004E-17  6.74590863E-19 -5.42817049E-03 -2.17097870E-17  1.35709667E-18
 -9.86240882E-04  1.30258079E-19  1.33257968E-08 -8.04995365E-04  8.38050205E-20
 -7.32633451E-18  1.67381347E-19  3.31751549E-08 -1.80376873E-03  4.13380311E-19
 -1.36133897E-17  5.64118814E-19  1.41312900E-08  1.22527203E-04  3.92614669E-19
 -1.22147424E-18  1.25894024E-04  5.28271265E-19  1.16360583E-20  6.46035014E-06
  4.49683360E-09  2.89943217E-19  3.19221953E-20  1.04140877E-17  3.32809343E-17
  7.43184787E-17 -8.15102021E-19  5.29933047E-19 -5.91929100E-04 -1.03611106E-17
  7.08489404E-18 -1.68604713E-06 -9.55705221E-18 -3.07908183E-17 -6.58752403E-17
 -8.90416523E-19 -6.27864829E-19 -5.91920112E-04 -8.42611682E-18 -5.89038232E-18
 -1.66432982E-06 -2.98714178E-19 -7.37521188E-19  1.09725847E-18  1.66528817E-18
  9.93986595E-18  6.46349637E-19  4.22338281E-17 -2.12186004E-18 -5.15665232E-03
  4.87346070E-17 -6.82598256E-19 -2.82273841E-03  3.31181147E-17 -1.25117367E-18
  7.87260499E-03  3.43716878E-17 -2.16215559E-18  1.34274053E-03 -2.04646602E-19
 -2.63729461E-08  1.67433968E-03 -1.28668979E-19  1.33015038E-17 -1.77199743E-19
 -4.67852080E-08  2.46876981E-03 -6.04668321E-19  2.04845980E-17 -8.65374118E-19
 -2.26612369E-08 -5.14218384E-05 -6.14302044E-19  1.21146012E-18 -2.02614382E-04
 -6.19875793E-19 -3.55899577E-20 -1.54215856E-05 -7.28199067E-09 -4.78620449E-19
 -3.61269283E-20 -1.54567411E-17 -5.01722585E-17 -1.21300867E-16  4.41531872E-19
 -6.76632697E-20  8.32034575E-04  1.71627906E-17 -1.19131121E-17  3.81535367E-06
  1.42478555E-17  4.66551003E-17  1.07530394E-16  6.74249004E-19  2.42630286E-19
  8.32023576E-04  1.41216966E-17  1.01920837E-17  3.78513608E-06 -4.41855863E-19
 -1.09806456E-18  1.61913209E-18  2.39590966E-18  1.54198234E-17  2.05478359E-18
  6.27257058E-17 -3.12895610E-18 -6.60136740E-03  7.20900373E-17 -1.09632262E-18
 -3.59817927E-03  5.16605291E-17 -2.22682773E-18  1.04131588E-02  5.43465860E-17
 -3.47124652E-18  1.59205457E-03 -2.69096634E-19 -3.89336347E-08  2.13775857E-03
 -1.62018871E-19  1.85854965E-17 -2.91791654E-19 -6.76819233E-08  3.29945657E-03
 -8.83523465E-19  2.95963369E-17 -1.26264465E-18 -2.73663972E-08  2.06813547E-04
 -9.55985527E-19  7.35507050E-19 -3.33869664E-04 -1.01614654E-18 -6.41891752E-20
 -8.07930138E-05 -8.50523497E-09 -1.15464057E-18 -7.13368958E-20 -2.29828447E-17
 -7.64535155E-17 -1.81803660E-16  2.67836393E-19  3.64328172E-19  1.04141896E-03
  2.36339387E-17 -1.65864935E-17 -1.90802296E-04  2.13041416E-17  7.13030588E-17
  1.59168179E-16  6.25999470E-19 -1.80891569E-19  1.04140030E-03  1.88816197E-17
  1.43022908E-17 -1.90850452E-04 -3.73633922E-19 -9.05727564E-19  1.33800413E-18
  1.51548845E-18  1.56485754E-17  6.66625857E-18  5.36297249E-17 -2.57214865E-18
 -8.25990116E-04  5.54841010E-17 -1.13229474E-18 -2.39662061E-04  5.54832501E-17
 -3.52351418E-18  2.87719772E-03  5.96622821E-17 -4.02933202E-18 -4.95849136E-04
 -7.27061700E-20 -2.08884211E-08  4.13062367E-04 -7.59494638E-21  1.10432522E-17
 -3.35982691E-19 -3.95482026E-08  1.02031834E-03 -6.56437411E-19  2.07206162E-17
 -9.45383888E-19 -1.50584369E-08  1.45299908E-03 -9.84438412E-19 -4.26330320E-18
 -4.22779677E-04 -1.18453412E-18 -1.08905130E-19 -3.20543328E-04 -5.56789387E-09
 -2.89673452E-18 -1.31134082E-19 -1.89217621E-17 -7.12996813E-17 -1.60163091E-16
 -1.76582676E-18  2.59910304E-18 -1.22538350E-05  1.19369217E-17 -9.28658219E-18
 -1.01156949E-03  1.80807066E-17  6.74721662E-17  1.31654772E-16 -1.37157487E-18
 -2.77050143E-18 -1.22543346E-05  6.95745440E-18  8.62209116E-18 -1.01156925E-03
 -5.07241439E-20 -1.20818517E-19  1.78804271E-19  1.59132208E-19  2.36043784E-18
  1.35227093E-18  7.33344415E-18 -3.42460856E-19  3.19644827E-04  7.02829827E-18
 -1.72093337E-19  2.22094431E-04  8.60279142E-18 -6.27154909E-19 -1.47861748E-04
  9.34079209E-18 -6.46129972E-19 -2.34569272E-04  4.18490967E-21 -1.92800652E-09
 -7.03039562E-05  1.07158341E-20  1.07551733E-18 -5.36535535E-20 -3.86254446E-09
 -2.23210521E-05 -8.08311076E-20  2.42074578E-18 -1.17188620E-19 -1.02599775E-09
  3.13248689E-04 -1.49573752E-19 -1.02227319E-18 -7.01246444E-05 -1.90167136E-19
 -1.97458605E-20 -6.63934067E-05 -4.84801705E-10 -5.67404089E-19 -2.42146607E-20
 -2.52089285E-18 -1.02785302E-17 -2.23214605E-17 -4.20865816E-19  5.61022104E-19
 -8.27427299E-05  8.90032903E-19 -8.30599030E-19 -2.14438726E-04  2.45932198E-18
  9.80719893E-18  1.76021832E-17 -3.59013319E-19 -6.13904805E-19 -8.27417608E-05
  1.27053577E-19  8.55481186E-19 -2.14435752E-04  2.16784402E-18  4.09063777E-18
  5.57872794E-18 -5.52619095E-17  9.78770062E-17  1.78456907E-16  1.06342545E-18
  3.73259758E-17 -9.01383401E-08  3.25524986E-19  3.21113685E-17 -6.38221165E-08
 -1.88339712E-18 -3.93764933E-17  9.78756690E-08 -8.16304285E-19 -7.67772348E-17
  8.04432876E-08 -3.85761361E-18 -1.51321881E-03 -1.54661950E-09  7.66133364E-18
 -2.79589171E-19 -1.20657214E-17 -8.53347536E-04 -1.52745853E-08  2.19366243E-17
  1.52245616E-18 -1.15800461E-17  2.35556865E-03 -3.45853087E-08  1.23972416E-18
  1.42481838E-18  7.50093238E-09 -8.53057000E-20 -1.81210078E-18 -1.43908959E-08
  1.02353478E-03 -2.24791717E-19  6.33369074E-18  1.13279163E-17  3.94792012E-17
 -1.19706595E-16  9.12668454E-18 -3.79498800E-18  1.45705641E-03  5.66551154E-17
 -1.87798464E-17  3.22346386E-03  1.36556132E-17  3.88989772E-17 -1.26572624E-16
 -1.02482430E-17 -5.37615991E-18 -1.45702217E-03 -5.60432739E-17 -1.72116972E-17
 -3.22341693E-03 -6.80186250E-19 -1.62803266E-18  2.39049226E-18  2.01457219E-18
  3.27503637E-17  1.98743135E-17  9.87036208E-17 -4.57521132E-18  5.92391889E-03
  9.39076976E-17 -2.43403139E-18  3.90708044E-03  1.19584288E-16 -9.00306719E-18
 -3.96213550E-03  1.30687216E-16 -9.08838965E-18 -3.77525710E-03  1.09736101E-19
 -1.08915665E-08 -1.47266578E-03  1.88680858E-19  1.27057610E-17 -7.63710352E-19
 -4.07461853E-08 -8.70007129E-04 -1.06420578E-18  3.12716917E-17 -1.54093207E-18
 -2.71753655E-08  4.64976801E-03 -2.07849603E-18 -1.53930294E-17 -9.93723378E-04
 -2.70000479E-18 -2.83250058E-19 -9.81784105E-04 -1.29815399E-08 -8.31192211E-18
 -3.52567918E-19 -3.39276401E-17 -1.41169162E-16 -3.02818768E-16 -6.27111989E-18
  8.27252791E-18 -1.41259275E-03  9.14114445E-18 -9.48896302E-18 -3.18522982E-03
  3.32808849E-17  1.34949125E-16  2.35993363E-16 -5.41766470E-18 -9.10042325E-18
 -1.41255476E-03 -1.48058894E-18  1.02436912E-17 -3.18513179E-03  1.72981358E-02
  4.16839444E-02 -6.14854793E-02 -1.99057676E-01  1.30579652E-01  9.37025644E-01
 -1.12921481E-06  7.97224562E-02  5.48369932E-18 -9.18494922E-07  9.30410704E-02
  6.61981269E-18 -1.23295494E-06 -5.03399454E-02  5.54150681E-19  3.58639391E-07
 -1.28582190E-01 -2.66852288E-17 -2.80670665E-03  1.11102763E-17 -4.54960056E-19
  1.41205408E-03 -3.63192599E-08 -4.61008684E-03  3.17774823E-17  1.16348546E-18
  3.38773803E-03 -1.15392726E-07 -2.20951874E-02  2.68415432E-17  2.94294367E-18
  2.06526114E-02 -3.50077225E-07 -4.59887396E-19 -2.88930023E-08  1.19868202E-03
 -2.27976415E-19  8.76265869E-18 -1.88755499E-08  4.00394939E-04  2.05873629E-02
  6.79852367E-02 -3.20674903E-01  9.75591175E-03 -5.00549147E-03  6.03373281E-18
  1.22734897E-01 -1.27273916E-01  3.20249719E-17  2.05866459E-02  6.79831628E-02
 -3.20679373E-01 -9.75577883E-03 -5.00517295E-03 -6.84110113E-18 -1.22734944E-01
 -1.27272182E-01 -3.31515694E-17  1.71628784E-18  3.23856883E-18  4.41669229E-18
 -4.37509940E-17  7.74894597E-17  1.41284773E-16  8.41882508E-19  2.95510712E-17
 -7.91335363E-08  2.57693059E-19  2.54226530E-17 -5.52284040E-08 -1.49114505E-18
 -3.11744646E-17  8.59854602E-08 -6.46331308E-19 -6.07847271E-17  6.71943006E-08
 -3.05408271E-18 -1.19801917E-03  9.91978125E-10  6.06549705E-18 -2.21350017E-19
 -9.55246189E-18 -6.75597409E-04 -9.67294213E-09  1.73672814E-17  1.20532691E-18
 -9.16795153E-18  1.86490967E-03 -3.05067337E-08  9.81493682E-19  1.12804345E-18
  6.44712158E-09 -6.75354123E-20 -1.43464463E-18 -1.07533202E-08  8.10335080E-04
 -1.77963014E-19  5.01439923E-18  8.96835110E-18  3.12558401E-17 -9.47719046E-17
  7.22562380E-18 -3.00450718E-18  1.15355682E-03  4.48540053E-17 -1.48680546E-17
  2.55202663E-03  1.08111721E-17  3.07963641E-17 -1.00207944E-16 -8.11355584E-18
 -4.25631320E-18 -1.15352659E-03 -4.43695906E-17 -1.36265435E-17 -2.55198524E-03
 -5.51669621E-19 -1.31954362E-18  1.93819419E-18  1.62388439E-18  2.65979043E-17
  1.61972230E-17  8.00581543E-17 -3.70931298E-18  4.88150751E-03  7.60252754E-17
 -1.97566389E-18  3.21534687E-03  9.71747524E-17 -7.32753305E-18 -3.31135780E-03
  1.06192750E-16 -7.38724524E-18 -3.09186278E-03  9.14988138E-20 -7.60675595E-09
 -1.21533749E-03  1.55101444E-19  1.02330175E-17 -6.20401588E-19 -3.21421152E-08
 -7.35492191E-04 -8.61307022E-19  2.52838504E-17 -1.24741280E-18 -2.35378926E-08
  3.79157597E-03 -1.68822309E-18 -1.25634646E-17 -8.08070207E-04 -2.19387105E-18
 -2.30623630E-19 -8.00206342E-04 -1.12097939E-08 -6.77109041E-18 -2.86988768E-19
 -2.74990849E-17 -1.14569153E-16 -2.45664282E-16 -5.12033826E-18  6.74778904E-18
 -1.16026772E-03  7.28453863E-18 -7.61999067E-18 -2.59658839E-03  2.69845218E-17
  1.09535481E-16  1.91324382E-16 -4.42640313E-18 -7.42432038E-18 -1.16023464E-03
 -1.34374500E-18  8.25312749E-18 -2.59650376E-03  1.46488007E-02  3.52997456E-02
 -5.20685316E-02 -1.68570547E-01  1.10580430E-01  7.93513361E-01 -9.56267359E-07
  6.75123830E-02  4.64383094E-18 -7.77820754E-07  7.87911548E-02  5.60594030E-18
 -1.04411894E-06 -4.26300172E-02  4.69278480E-19  3.03711163E-07 -1.08888894E-01
 -2.25981922E-17 -2.37683914E-03  9.40865676E-18 -3.85279619E-19  1.19578775E-03
 -3.07567015E-08 -3.90401856E-03  2.69105301E-17  9.85289212E-19  2.86888134E-03
 -9.77194921E-08 -1.87111490E-02  2.27305659E-17  2.49221048E-18  1.74895140E-02
 -2.96460356E-07 -3.89452302E-19 -2.44678292E-08  1.01509516E-03 -1.93060172E-19
  7.42059387E-18 -1.59846224E-08  3.39071546E-04  1.74342587E-02  5.75728039E-02
 -2.71561213E-01  8.26172301E-03 -4.23886410E-03  5.10962281E-18  1.03937156E-01
 -1.07780991E-01  2.71201149E-17  1.74336516E-02  5.75710477E-02 -2.71564998E-01
 -8.26161045E-03 -4.23859436E-03 -5.79333681E-18 -1.03937196E-01 -1.07779523E-01
 -2.80741658E-17  7.62288577E-19  1.43840890E-18  1.96167417E-18 -1.94319939E-17
  3.44169414E-17  6.27516089E-17  3.73968549E-19  1.31251001E-17 -3.67213166E-08
  1.14504160E-19  1.12914653E-17 -2.52564812E-08 -6.62245583E-19 -1.38461350E-17
  4.17833740E-08 -2.87018223E-19 -2.69975278E-17  2.97462720E-08 -1.35647032E-18
 -5.32099977E-04  1.03154472E-09  2.69398928E-18 -9.83021623E-20 -4.24272433E-18
 -3.00066455E-04 -3.07546252E-09  7.71367399E-18  5.35364619E-19 -4.07194470E-18
  8.28299261E-04 -1.25122876E-08  4.35929395E-19  5.01017443E-19  2.51911866E-09
 -2.99968263E-20 -6.37197210E-19 -5.01127650E-09  3.59910165E-04 -7.90444273E-20
  2.22714432E-18  3.98327469E-18  1.38822139E-17 -4.20930612E-17  3.20925822E-18
 -1.33444943E-18  5.12352183E-04  1.99219094E-17 -6.60365241E-18  1.13348139E-03
  4.80179578E-18  1.36782568E-17 -4.45072231E-17 -3.60363505E-18 -1.89044259E-18
 -5.12338454E-04 -1.97067372E-17 -6.05221850E-18 -1.13346447E-03 -3.62946444E-19
 -8.71650397E-19  1.28025131E-18  1.15201979E-18  1.70631216E-17  9.83869745E-18
  5.25704360E-17 -2.45244970E-18  2.42333776E-03  5.08991117E-17 -1.26485395E-18
  1.65146414E-03  6.19736798E-17 -4.54847771E-18 -1.19711402E-03  6.75813424E-17
 -4.67801530E-18 -1.72893914E-03  3.45300714E-20 -7.35611157E-09 -5.67616545E-04
  8.05890276E-20  7.50855717E-18 -3.93151645E-19 -2.42596214E-08 -1.91235493E-04
 -5.81491281E-19  1.73431516E-17 -8.40758595E-19 -1.62798942E-08  2.28252473E-03
 -1.08131121E-18 -7.45589862E-18 -5.08272113E-04 -1.38881929E-18 -1.42681267E-19
 -4.84581978E-04 -7.40718273E-09 -4.13577567E-18 -1.77017252E-19 -1.81717508E-17
 -7.42560378E-17 -1.60536980E-16 -3.03948910E-18  4.06037388E-18 -6.15442948E-04
  6.12671663E-18 -5.79891804E-18 -1.56711947E-03  1.77376901E-17  7.08582633E-17
  1.26344205E-16 -2.59796942E-18 -4.45125024E-18 -6.15424385E-04  6.10350113E-19
  6.00572599E-18 -1.56707207E-03  1.10842555E-02  2.67101320E-02 -3.93985092E-02
 -1.27551672E-01  8.36724975E-02  6.00424912E-01 -7.23575397E-07  5.10843530E-02
  3.51383092E-18 -5.88550843E-07  5.96186208E-02  4.24182676E-18 -7.90049734E-07
 -3.22567024E-02  3.55087266E-19  2.29808038E-07 -8.23925692E-02 -1.70992932E-17
 -1.79847436E-03  7.11921460E-18 -2.91528149E-19  9.04812429E-04 -2.32725631E-08
 -2.95403974E-03  2.03622944E-17  7.45535258E-19  2.17078617E-03 -7.39410580E-08
 -1.41580981E-02  1.71994559E-17  1.88577197E-18  1.32337279E-02 -2.24321595E-07
 -2.94685478E-19 -1.85139847E-08  7.68088418E-04 -1.46082148E-19  5.61491418E-18
 -1.20950269E-08  2.56564052E-04  1.31919181E-02  4.35634073E-02 -2.05481250E-01
  6.25136835E-03 -3.20740611E-03  3.86627998E-18  7.86457554E-02 -8.15542566E-02
  2.05208802E-17  1.31914587E-02  4.35620784E-02 -2.05484114E-01 -6.25128318E-03
 -3.20720201E-03 -4.38362341E-18 -7.86457854E-02 -8.15531458E-02 -2.12427785E-17
  4.09442010E-20  7.72601154E-20  1.05365838E-19 -1.04373522E-18  1.84860968E-18
  3.37052713E-18  2.00864559E-20  7.04978065E-19 -2.02581870E-09  6.15014481E-21
  6.06489494E-19 -1.38980277E-09 -3.55710301E-20 -7.43706395E-19  2.30471980E-09
 -1.54167700E-20 -1.45009669E-18  1.62180107E-09 -7.28590119E-20 -2.85802625E-05
  6.93768440E-11  1.44700100E-19 -5.28001657E-21 -2.27886073E-19 -1.61172306E-05
 -1.47383135E-10  4.14318432E-19  2.87555877E-20 -2.18713122E-19  4.44897788E-05
 -6.92962019E-10  2.34147344E-20  2.69108264E-20  1.38578998E-10 -1.61118779E-21
 -3.42252654E-20 -2.64964128E-10  1.93315682E-05 -4.24561671E-21  1.19624831E-19
  2.13950526E-19  7.45644651E-19 -2.26091040E-18  1.72376364E-19 -7.16762587E-20
  2.75195757E-05  1.07004971E-18 -3.54696744E-19  6.08817974E-05  2.57914967E-19
  7.34688981E-19 -2.39058152E-18 -1.93559151E-19 -1.01539795E-19 -2.75188168E-05
 -1.05849221E-18 -3.25077988E-19 -6.08808611E-05 -4.84603802E-20 -1.16484380E-19
  1.71127973E-19  1.56923446E-19  2.26102575E-18  1.28202860E-18  7.01496405E-18
 -3.27897071E-19  2.93153979E-04  6.82675219E-18 -1.67415605E-19  2.02681826E-04
  8.19880811E-18 -5.96744301E-19 -1.22106578E-04  8.93382216E-18 -6.17482252E-19
 -2.19081864E-04  3.61950077E-21 -1.12696549E-09 -6.67335858E-05  9.93182591E-21
  1.03271165E-18 -5.18857434E-20 -3.38729616E-09 -1.43257905E-05 -7.81877311E-20
  2.34236917E-18 -1.13007874E-19 -2.12152806E-09  2.96564433E-04 -1.43216832E-19
 -9.64265943E-19 -6.69523094E-05 -1.83249760E-19 -1.87024622E-20 -6.30757019E-05
 -9.54269054E-10 -5.39812238E-19 -2.31727319E-20 -2.42872976E-18 -9.86920603E-18
 -2.13901594E-17 -3.93254631E-19  5.27600010E-19 -7.64770114E-05  8.69556077E-19
 -8.04616139E-19 -2.03758009E-04  2.36713251E-18  9.41239002E-18  1.68855202E-17
 -3.34867386E-19 -5.77684728E-19 -7.64747583E-05  1.39319432E-19  8.24169248E-19
 -2.03752225E-04  1.48487844E-03  3.57816535E-03 -5.27793650E-03 -1.70871852E-02
  1.12090061E-02  8.04346312E-02 -9.69322208E-08  6.84340541E-03  4.70722797E-19
 -7.88439471E-08  7.98668023E-03  5.68247193E-19 -1.05837312E-07 -4.32119972E-03
  4.75685014E-20  3.07857392E-08 -1.10375432E-02 -2.29067001E-18 -2.40928747E-04
  9.53710263E-19 -3.90539411E-20  1.21211250E-04 -3.11765883E-09 -3.95731576E-04
  2.72779095E-18  9.98740263E-20  2.90804697E-04 -9.90535471E-09 -1.89665914E-03
  2.30408809E-18  2.52623384E-19  1.77282788E-03 -3.00507597E-08 -3.94769058E-20
 -2.48018611E-09  1.02895312E-04 -1.95695806E-20  7.52189894E-19 -1.62028425E-09
  3.43700511E-05  1.76722692E-03  5.83587810E-03 -2.75268534E-02  8.37451108E-04
 -4.29673257E-04  5.17937877E-19  1.05356094E-02 -1.09252405E-02  2.74903555E-18
  1.76716537E-03  5.83570008E-03 -2.75272372E-02 -8.37439698E-04 -4.29645915E-04
 -5.87242676E-19 -1.05356134E-02 -1.09250917E-02 -2.84574310E-18 -7.22094236E-21
 -1.70606310E-20  2.49515879E-20  1.43463396E-20  3.87022884E-19  2.82979508E-19
  1.05758149E-18 -4.75534042E-20  1.32032825E-04  9.28031609E-19 -2.92027338E-20
  8.19780163E-05  1.44222477E-18 -1.19632153E-19 -1.27818219E-04  1.59161630E-18
 -1.12730976E-19 -6.68285640E-05  3.41745659E-21 -1.11400477E-10 -3.62508271E-05
  3.88857885E-21  6.62254293E-20 -9.50031616E-21 -2.79634413E-10 -3.46971125E-05
 -1.00558937E-20  2.71420544E-19 -1.46631905E-20  9.91282967E-11  6.80082230E-05
 -2.47094931E-20 -2.34458594E-19 -1.26264388E-05 -3.36547737E-20 -3.79922512E-21
 -1.41217662E-05  3.16734092E-12 -1.16450998E-19 -4.79539686E-21 -3.54809810E-19
 -1.60263351E-18 -3.31724730E-18 -9.51369134E-20  1.20860095E-19 -2.79465183E-05
 -2.00932580E-20 -3.17340446E-20 -4.62924899E-05  3.56216995E-19  1.54372167E-18
  2.46938709E-18 -8.48017706E-20 -1.34441228E-19 -2.79462291E-05 -1.47258101E-19
  5.80554173E-20 -4.62915951E-05 -1.64683328E-09 -3.96843380E-09  5.85359802E-09
  1.89508747E-08 -1.24315659E-08 -8.92075904E-08  1.07504563E-13 -7.58981172E-09
 -5.22064264E-25  8.74434113E-14 -8.85778287E-09 -6.30225590E-25  1.17380927E-13
  4.79251050E-09 -5.27567707E-26 -3.41435222E-14  1.22414017E-08  2.54051208E-24
  2.67206708E-10 -1.05773090E-24  4.33135321E-26 -1.34431691E-10  3.45770010E-15
  4.38893793E-10 -3.02530955E-24 -1.10767229E-25 -3.22522599E-10  1.09857261E-14
  2.10352667E-09 -2.55539366E-24 -2.80176872E-25 -1.96618920E-09  3.33283789E-14
  4.37826294E-26  2.75069859E-15 -1.14118045E-10  2.17040236E-26 -8.34230816E-25
  1.79700773E-15 -3.81187729E-11 -1.95997735E-09 -6.47239399E-09  3.05291916E-08
 -9.28791421E-10  4.76537474E-10 -5.74429065E-25 -1.16847223E-08  1.21168502E-08
 -3.04887128E-24 -1.95990909E-09 -6.47219655E-09  3.05296172E-08  9.28778766E-10
  4.76507149E-10  6.51292898E-25  1.16847267E-08  1.21166852E-08  3.15612667E-24
 -1.93495081E-04 -4.66272105E-04  6.87769937E-04  2.22663768E-03 -1.46064989E-03
 -1.04814678E-02  1.26312750E-08 -8.91766794E-04 -6.13400690E-20  1.02741851E-08
 -1.04074738E-03 -7.40485105E-20  1.37917009E-08  5.63097198E-04 -6.19866973E-21
 -4.01170153E-09  1.43830651E-03  2.98498091E-19  3.13955178E-05 -1.24278351E-19
  5.08913410E-21 -1.57950846E-05  4.06263322E-10  5.15679341E-05 -3.55459489E-19
 -1.30146228E-20 -3.78948720E-05  1.29077058E-09  2.47154383E-04 -3.00246606E-19
 -3.29194504E-20 -2.31017883E-04  3.91592607E-09  5.14425080E-21  3.23194007E-10
 -1.34083277E-05  2.55011958E-21 -9.80181547E-20  2.11139865E-10 -4.47877458E-06
 -2.30288020E-04 -7.60475522E-04  3.58703487E-03 -1.09128576E-04  5.59908876E-05
 -6.74926842E-20 -1.37289931E-03  1.42367229E-03 -3.58227881E-19 -2.30280000E-04
 -7.60452324E-04  3.58708487E-03  1.09127089E-04  5.59873246E-05  7.65238192E-20
  1.37289984E-03  1.42365290E-03  3.70829879E-19 -6.00462582E-21 -1.44864268E-20
  2.13268529E-20  2.15290743E-20  2.68068945E-19  1.37039517E-19  8.66063502E-19
 -4.09335058E-20  1.54546462E-05  8.65254828E-19 -1.96853019E-20  1.29215648E-05
  9.63558504E-19 -6.66432244E-20  1.06966289E-05  1.04462765E-18 -7.15440858E-20
 -1.90750813E-05 -2.30783904E-22  1.64960135E-10 -2.00243127E-06  6.59538153E-22
  1.48767337E-19 -5.99384376E-21 -2.92341653E-10  5.87476810E-06 -1.00565353E-20
  3.08234546E-19 -1.45005607E-20 -8.56527922E-10  3.11087893E-05 -1.69359917E-20
 -9.80288125E-20 -7.66407040E-06 -2.11646116E-20 -2.07805449E-21 -6.69458437E-06
 -3.67909711E-10 -5.83312082E-20 -2.55169129E-21 -3.02274475E-19 -1.19048856E-18
 -2.61812379E-18 -4.01575674E-20  5.54339936E-20 -5.57134096E-06  1.43095420E-19
 -1.20526055E-19 -2.14654331E-05  2.92158605E-19  1.13179620E-18  2.10211341E-18
 -3.32975860E-20 -6.01857232E-20 -5.57043737E-06  5.70429669E-20  1.17444113E-19
 -2.14633676E-05 -6.61130861E-20 -1.24752827E-19 -1.70135482E-19  1.68533184E-18
 -2.98497304E-18 -5.44243187E-18 -3.24345758E-20 -1.13833649E-18  1.91197472E-09
 -9.92978001E-21 -9.79305751E-19  1.44204065E-09  5.74329879E-20  1.20087210E-18
 -2.04920130E-09  2.48890488E-20  2.34148879E-18 -2.08400214E-09  1.17646272E-19
  4.61488909E-05  2.86760420E-10 -2.33649016E-19  8.52693863E-21  3.67970390E-19
  2.60246846E-05  7.34680718E-10 -6.69004934E-19 -4.64309806E-20  3.53158663E-19
 -7.18381768E-05  7.35832665E-10 -3.78079896E-20 -4.34517831E-20 -1.78753626E-10
  2.60171161E-21  5.52639613E-20  5.03910532E-10 -3.12149138E-05  6.85603218E-21
 -1.93159621E-19 -3.45468406E-19 -1.20399862E-18  3.65072257E-18 -2.78337583E-19
  1.15735826E-19 -4.44359306E-05 -1.72781984E-18  5.72731798E-19 -9.83063091E-05
 -4.16458594E-19 -1.18631387E-18  3.86009993E-18  3.12542830E-19  1.63958299E-19
  4.44352185E-05  1.70916253E-18  5.24908216E-19  9.83053086E-05 -1.56438959E-20
 -3.65931557E-20  5.36410195E-20  2.43561148E-20  8.70400874E-19  6.75093220E-19
  2.29773603E-18 -1.02055649E-19  3.46181276E-04  1.93342032E-18 -6.55890512E-20
  2.13225345E-04  3.27279198E-18 -2.79759199E-19 -3.52184877E-04  3.61778491E-18
 -2.57790187E-19 -1.68094270E-04  9.36139200E-21  3.27286228E-10 -9.59196410E-05
  1.00561433E-20  8.49164071E-20 -2.16379850E-20 -1.41563911E-10 -9.77424541E-05
 -2.05868690E-20  5.32060748E-19 -3.01569906E-20 -3.34501836E-10  1.63448656E-04
 -5.56954963E-20 -5.69692694E-19 -2.91045608E-05 -7.68311192E-20 -8.92252618E-21
 -3.37594165E-05 -2.55670012E-10 -2.76350056E-19 -1.12685738E-20 -7.60657838E-19
 -3.55072837E-18 -7.26118360E-18 -2.31595249E-19  2.91000919E-19 -7.18569911E-05
 -1.45213217E-19 -8.89606096E-21 -1.10954737E-04  7.71116387E-19  3.43016328E-18
  5.30760697E-18 -2.08006325E-19 -3.24517185E-19 -7.18553639E-05 -4.32515562E-19
  8.20294343E-20 -1.10950496E-04 -3.78312206E-09 -9.11632624E-09  1.34469445E-08
  4.35341410E-08 -2.85579189E-08 -2.04928578E-07  2.46960568E-13 -1.74353922E-08
 -1.19929130E-24  2.00875888E-13 -2.03481884E-08 -1.44776059E-24  2.69648653E-13
  1.10094036E-08 -1.21193387E-25 -7.84348443E-14  2.81210718E-08  5.83609002E-24
  6.13829950E-10 -2.42983010E-24  9.95002838E-26 -3.08817841E-10  7.94306361E-15
  1.00823126E-09 -6.94977167E-24 -2.54455599E-25 -7.40902175E-10  2.52365210E-14
  4.83224272E-09 -5.87027614E-24 -6.43625142E-25 -4.51674971E-09  7.65622889E-14
  1.00577899E-25  6.31893261E-15 -2.62153126E-10  4.98587024E-26 -1.91640346E-24
  4.12810432E-15 -8.75668303E-11 -4.50247977E-09 -1.48684489E-08  7.01319675E-08
 -2.13362904E-09  1.09470670E-09 -1.31958426E-24 -2.68422621E-08  2.78349508E-08
 -7.00389793E-24 -4.50232298E-09 -1.48679953E-08  7.01329451E-08  2.13359997E-09
  1.09463704E-09  1.49615663E-24  2.68422723E-08  2.78345716E-08  7.25028609E-24
 -7.85684513E-04 -1.89329242E-03  2.79268178E-03  9.04123626E-03 -5.93095180E-03
 -4.25598772E-02  5.12891444E-08 -3.62100863E-03 -2.49070632E-19  4.17182084E-08
 -4.22594254E-03 -3.00673110E-19  5.60010402E-08  2.28644958E-03 -2.51696259E-20
 -1.62894671E-08  5.84022673E-03  1.21204800E-18  1.27481133E-04 -5.04630792E-19
  2.06643695E-20 -6.41357563E-05  1.64962747E-09  2.09390993E-04 -1.44333909E-18
 -5.28457237E-20 -1.53871684E-04  5.24115886E-09  1.00356748E-03 -1.21914783E-18
 -1.33669043E-19 -9.38045412E-04  1.59005720E-08  2.08881702E-20  1.31232548E-09
 -5.44443577E-05  1.03547307E-20 -3.98001570E-19  8.57330951E-10 -1.81860118E-05
 -9.35081810E-04 -3.08790196E-03  1.45651131E-02 -4.43115307E-04  2.27350344E-04
 -2.74053254E-19 -5.57464159E-03  5.78080468E-03 -1.45458012E-18 -9.35049247E-04
 -3.08780776E-03  1.45653161E-02  4.43109270E-04  2.27335876E-04  3.10724072E-19
  5.57464372E-03  5.78072594E-03  1.50575038E-18 -3.27873518E-20 -7.89559128E-20
  1.16007518E-19  1.09966436E-19  1.50951726E-18  8.29790488E-19  4.74131620E-18
 -2.22401814E-19  1.62204163E-04  4.65759483E-18 -1.11620722E-19  1.15896847E-04
  5.45709858E-18 -3.91208875E-19 -3.76847886E-05  5.93891444E-18 -4.09344238E-19
 -1.34236208E-04  1.27326243E-21 -3.44241192E-10 -3.44660651E-05  5.73293934E-21
  7.34386708E-19 -3.43978855E-20 -2.13664394E-09  3.68401301E-06 -5.35751634E-20
  1.61695844E-18 -7.73617582E-20 -2.29124373E-09  1.90918654E-04 -9.55368045E-20
 -6.15269704E-19 -4.42215740E-05 -1.21441785E-19 -1.22383902E-20 -4.07503751E-05
 -1.00318103E-09 -3.50553790E-19 -1.51359279E-20 -1.64655901E-18 -6.62478634E-18
 -1.44206632E-17 -2.51033141E-19  3.39621301E-19 -4.49665252E-05  6.49474008E-19
 -5.80402286E-19 -1.31367186E-04  1.60051705E-18  6.31182845E-18  1.14447990E-17
 -2.12204742E-19 -3.71011819E-19 -4.49641335E-05  1.62866953E-19  5.84044794E-19
 -1.31361409E-04 -1.51221952E-19 -2.85349927E-19 -3.89154847E-19  3.85489743E-18
 -6.82759531E-18 -1.24485946E-17 -7.41901817E-20 -2.60374281E-18  8.36624569E-09
 -2.27192815E-20 -2.23998849E-18  5.63300987E-09  1.31375188E-19  2.74678090E-18
 -9.73232940E-09  5.69382147E-20  5.35573991E-18 -6.27640652E-09  2.69095131E-19
  1.05557409E-04 -5.33029433E-10 -5.34430609E-19  1.94994646E-20  8.41666995E-19
  5.95268541E-05  1.71542371E-10 -1.53023013E-18 -1.06207072E-19  8.07787997E-19
 -1.64317098E-04  2.68429161E-09 -8.64791816E-20 -9.93921302E-20 -5.08161169E-10
  5.95072773E-21  1.26406477E-19  9.55915664E-10 -7.13985835E-05  1.56804797E-20
 -4.41818455E-19 -7.90196559E-19 -2.75393608E-18  8.35038234E-18 -6.36649463E-19
  2.64726974E-19 -1.01640058E-04 -3.95208891E-18  1.31002685E-18 -2.24858927E-04
 -9.52575911E-19 -2.71347954E-18  8.82928648E-18  7.14884826E-19  3.75023504E-19
  1.01636946E-04  3.90939856E-18  1.20063125E-18  2.24855306E-04 -1.52585073E-20
 -3.68563558E-20  5.41457970E-20  5.37262275E-20  6.89360040E-19  3.61392464E-19
  2.20356687E-18 -1.03866178E-19  5.15490431E-05  2.19486918E-18 -5.08979263E-20
  3.98357464E-05  2.48025956E-18 -1.73809342E-19  1.22888170E-05  2.69478778E-18
 -1.85003140E-19 -5.32011675E-05 -1.87563645E-22 -4.97588920E-10 -9.01131119E-06
  2.01801001E-21  3.65315065E-19 -1.55589182E-20 -1.23927048E-09  1.06148137E-05
 -2.53835910E-20  7.74135738E-19 -3.66189508E-20 -6.76220443E-10  8.24167340E-05
 -4.35732308E-20 -2.61750511E-19 -1.98723643E-05 -5.48735070E-20 -5.42106189E-21
 -1.76944241E-05 -2.87862202E-10 -1.53470579E-19 -6.68589415E-21 -7.68813937E-19
 -3.04943232E-18 -6.67865091E-18 -1.06809562E-19  1.46531471E-19 -1.64333721E-05
  3.42781088E-19 -2.93972729E-19 -5.68537603E-05  7.44483221E-19  2.90115808E-18
  5.34087870E-18 -8.92013457E-20 -1.59497346E-19 -1.64328689E-05  1.21146234E-19
  2.89286821E-19 -5.68524569E-05 -4.12608867E-09 -9.94278531E-09  1.46660046E-08
  4.74808170E-08 -3.11468951E-08 -2.23506795E-07  2.69349280E-13 -1.90160331E-08
 -1.30801549E-24  2.19086700E-13 -2.21928947E-08 -1.57901027E-24  2.94094199E-13
  1.20074834E-08 -1.32180419E-25 -8.55455144E-14  3.06704447E-08  6.36517262E-24
  6.69477951E-10 -2.65011129E-24  1.08520684E-25 -3.36814349E-10  8.66315818E-15
  1.09963451E-09 -7.57981734E-24 -2.77523788E-25 -8.08070166E-10  2.75243891E-14
  5.27031950E-09 -6.40245795E-24 -7.01974287E-25 -4.92622483E-09  8.35031987E-14
  1.09695992E-25  6.89178828E-15 -2.85919150E-10  5.43787443E-26 -2.09013891E-24
  4.50234600E-15 -9.55053792E-11 -4.91066122E-09 -1.62163783E-08  7.64899234E-08
 -2.32705751E-09  1.19394956E-09 -1.43921385E-24 -2.92757019E-08  3.03583848E-08
 -7.63885052E-24 -4.91049021E-09 -1.62158837E-08  7.64909897E-08  2.32702581E-09
  1.19387358E-09  1.63179375E-24  2.92757130E-08  3.03579713E-08  7.90757551E-24
 -9.78345394E-04 -2.35755433E-03  3.47748659E-03  1.12582744E-02 -7.38530451E-03
 -5.29961570E-02  6.38659632E-08 -4.50893082E-03 -3.10146251E-19  5.19480992E-08
 -5.26220302E-03 -3.74402382E-19  6.97332821E-08  2.84711915E-03 -3.13415718E-20
 -2.02838733E-08  7.27233238E-03  1.50925920E-18  1.58741297E-04 -6.28373352E-19
  2.57315632E-20 -7.98627448E-05  2.05413930E-09  2.60736606E-04 -1.79726612E-18
 -6.58042376E-20 -1.91603183E-04  6.52636464E-09  1.24965632E-03 -1.51810001E-18
 -1.66446571E-19 -1.16806733E-03  1.97996156E-08  2.60102430E-20  1.63412613E-09
 -6.77948792E-05  1.28938562E-20 -4.95597147E-19  1.06756055E-09 -2.26454774E-05
 -1.16437701E-03 -3.84509890E-03  1.81366835E-02 -5.51773406E-04  2.83099842E-04
 -3.41254963E-19 -6.94162203E-03  7.19833921E-03 -1.81126360E-18 -1.16433646E-03
 -3.84498161E-03  1.81369363E-02  5.51765888E-04  2.83081827E-04  3.86917980E-19
  6.94162469E-03  7.19824116E-03  1.87498153E-18 -4.62267223E-20 -1.10770106E-19
  1.62851225E-19  1.43317974E-19  2.18714855E-18  1.28176309E-18  6.69793301E-18
 -3.11862516E-19  3.36601778E-04  6.43943320E-18 -1.61901955E-19  2.27074195E-04
  7.96146874E-18 -5.88756031E-19 -1.87758044E-04  8.68293276E-18 -6.01906532E-19
 -2.31065449E-04  5.30567756E-21 -9.84725229E-10 -8.01321555E-05  1.10219114E-20
  9.29643622E-19 -5.05011338E-20 -3.04451203E-09 -3.50367060E-05 -7.34451650E-20
  2.18149028E-18 -1.06281167E-19 -1.84609238E-09  2.98159937E-04 -1.38668376E-19
 -9.78314322E-19 -6.55254676E-05 -1.78525089E-19 -1.84962059E-20 -6.31678371E-05
 -8.55700027E-10 -5.37736811E-19 -2.29367395E-20 -2.30927058E-18 -9.48915288E-18
 -2.04753548E-17 -3.99256532E-19  5.30899503E-19 -8.36652930E-05  7.33196985E-19
 -7.10854030E-19 -2.04471043E-04  2.25753320E-18  9.06008570E-18  1.60676058E-17
 -3.42432062E-19 -5.82557041E-19 -8.36630593E-05  2.53838933E-20  7.44749511E-19
 -2.04465255E-04 -2.78472712E-20 -5.25465606E-20 -7.16640779E-20  7.09879807E-19
 -1.25731863E-18 -2.29242174E-18 -1.37063750E-20 -4.79478111E-19 -8.22648922E-10
 -4.22609325E-21 -4.12493605E-19 -5.45179714E-10  2.41398876E-20  5.05824617E-19
 -3.76030275E-10  1.04274776E-20  9.86265421E-19  4.24211902E-10  4.95539247E-20
  1.94384346E-05  4.71889355E-10 -9.84156639E-20  3.58483543E-21  1.54993613E-19
  1.09618914E-05  3.15803327E-10 -2.81791942E-19 -1.95723390E-20  1.48755146E-19
 -3.02590523E-05 -1.51167872E-09 -1.59242517E-20 -1.82964934E-20  3.43069826E-10
  1.09701640E-21  2.32779216E-20  6.00447154E-10 -1.31480746E-05  2.89117213E-21
 -8.13608726E-20 -1.45499753E-19 -5.07075488E-19  1.53786122E-18 -1.17236531E-19
  4.87459941E-20 -1.87164741E-05 -7.27783182E-19  2.41246462E-19 -4.14064768E-05
 -1.75432095E-19 -4.99748234E-19  1.62581030E-18  1.31648613E-19  6.90646354E-20
  1.87170588E-05  7.19917241E-19  2.21091860E-19  4.14085595E-05 -1.98137694E-04
 -4.77459578E-04  7.04271906E-04  2.28006239E-03 -1.49569591E-03 -1.07329542E-02
  1.29343428E-08 -9.13163349E-04 -6.28118284E-20  1.05206982E-08 -1.06571849E-03
 -7.58251892E-20  1.41226113E-08  5.76607839E-04 -6.34739716E-21 -4.10795606E-09
  1.47281643E-03  3.05660087E-19  3.21488043E-05 -1.27260217E-19  5.21123995E-21
 -1.61740631E-05  4.16010978E-10  5.28052263E-05 -3.63988185E-19 -1.33268884E-20
 -3.88041005E-05  1.32174061E-09  2.53084467E-04 -3.07450555E-19 -3.37093013E-20
 -2.36560798E-04  4.00988262E-09  5.26767908E-21  3.30948544E-10 -1.37300396E-05
  2.61130573E-21 -1.00369948E-19  2.16205837E-10 -4.58623580E-06 -2.35813422E-04
 -7.78721948E-04  3.67310018E-03 -1.11746946E-04  5.73343017E-05 -6.91120660E-20
 -1.40583989E-03  1.45783109E-03 -3.66823001E-19 -2.35805210E-04 -7.78698193E-04
  3.67315138E-03  1.11745424E-04  5.73306532E-05  7.83598890E-20  1.40584043E-03
  1.45781123E-03  3.79727364E-19 -2.99214848E-20 -5.64606917E-20 -7.69998368E-20
  7.62747570E-19 -1.35093799E-18 -2.46313516E-18 -1.46758446E-20 -5.15188500E-19
  1.11421117E-09 -4.49085349E-21 -4.43214295E-19  8.13794947E-10  2.59972430E-20
  5.43490387E-19 -1.12040323E-09  1.12689035E-20  1.05971071E-18 -1.09048018E-09
  5.32443568E-20  2.08860657E-05  6.61408655E-11 -1.05744867E-19  3.85951457E-21
  1.66536017E-19  1.17782521E-05  2.85537243E-10 -3.02778298E-19 -2.10127019E-20
  1.59832501E-19 -3.25125230E-05  5.04926373E-10 -1.71112135E-20 -1.96659841E-20
 -1.16357685E-10  1.17738700E-21  2.50113541E-20  1.91945117E-10 -1.41272461E-05
  3.10259945E-21 -8.74201966E-20 -1.56353255E-19 -5.44910619E-19  1.65223361E-18
 -1.25970262E-19  5.23800280E-20 -2.01108712E-05 -7.81976489E-19  2.59206684E-19
 -4.44915882E-05 -1.88479693E-19 -5.36897249E-19  1.74701216E-18  1.41450434E-19
  7.42039114E-20  2.01104347E-05  7.73532663E-19  2.37563287E-19  4.44909005E-05
  5.59753071E-21  1.32262446E-20 -1.94042610E-20 -1.21801271E-20 -2.92919419E-19
 -2.07129575E-19 -8.17775312E-19  3.70166007E-20 -9.07198864E-05 -7.27400542E-19
  2.19464812E-20 -5.68189820E-05 -1.08853237E-18  8.86197232E-20  8.48017181E-05
 -1.19777176E-18  8.45356155E-20  4.73148911E-05 -2.26999935E-21 -3.38680937E-11
  2.45193584E-05 -2.69549235E-21 -6.31256965E-20  7.09785310E-21  1.71657573E-10
  2.27033064E-05  7.97931640E-21 -2.19901613E-19  1.16235290E-20  1.78052185E-10
 -4.95606049E-05  1.86812627E-20  1.69789632E-19  9.42666522E-06  2.51612433E-20
  2.81238479E-21  1.03139328E-05  1.03683253E-10  8.54273405E-20  3.53282327E-21
  2.75246493E-19  1.22239967E-18  2.55117686E-18  6.90782886E-20 -8.82206731E-20
  1.94955801E-05 -4.16611720E-21  3.62381023E-20  3.37471321E-05 -2.74990415E-19
 -1.17571609E-18 -1.91798292E-18  6.12624212E-20  9.79269557E-20  1.94951013E-05
  9.18363505E-20 -5.36010748E-20  3.37458940E-05  5.66885384E-05  1.36604424E-04
 -2.01496970E-04 -6.52341316E-04  4.27928747E-04  3.07077102E-03 -3.70060321E-09
  2.61262229E-04  1.79708902E-20 -3.01004312E-09  3.04909289E-04  2.16941010E-20
 -4.04057490E-09 -1.64971414E-04  1.81603339E-21  1.17531410E-09 -4.21382772E-04
 -8.74514246E-20 -9.19799101E-06  3.64100114E-20 -1.49097110E-21  4.62750917E-06
 -1.19023563E-10 -1.51079335E-05  1.04139489E-19  3.81291318E-21  1.11021164E-05
 -3.78158956E-10 -7.24091829E-05  8.79636896E-20  9.64445979E-21  6.76816490E-05
 -1.14725462E-09 -1.50711872E-21 -9.46866234E-11  3.92825748E-06 -7.47112284E-22
  2.87165229E-20 -6.18579567E-11  1.31215318E-06  6.74678198E-05  2.22797632E-04
 -1.05089888E-03  3.19715594E-05 -1.64037327E-05  1.97734309E-20  4.02220330E-04
 -4.17095365E-04  1.04950549E-19  6.74654703E-05  2.22790836E-04 -1.05091353E-03
 -3.19711238E-05 -1.64026888E-05 -2.24192958E-20 -4.02220484E-04 -4.17089684E-04
 -1.08642575E-19  1.79000406E-10  4.31343761E-10 -6.36249239E-10 -2.05984073E-09
  1.35123292E-09  9.69630325E-09 -1.16850689E-14  8.24964734E-10  5.67450975E-26
 -9.50454810E-15  9.62785213E-10  6.85015525E-26 -1.27585676E-14 -5.20915708E-10
  5.73432871E-27  3.71118583E-15 -1.33056327E-09 -2.76137663E-25 -2.90436863E-11
  1.14968687E-25 -4.70790816E-27  1.46118782E-11 -3.75830224E-16 -4.77049912E-11
  3.28832095E-25  1.20397002E-26  3.50561753E-11 -1.19407924E-15 -2.28640101E-10
  2.77755197E-25  3.04534614E-26  2.13712383E-10 -3.62258489E-15 -4.75889607E-27
 -2.98983613E-16  1.24039128E-11 -2.35909067E-27  9.06756358E-26 -1.95323423E-16
  4.14327054E-12  2.13037194E-10  7.03508464E-10 -3.31833085E-09  1.00953778E-10
 -5.17966222E-11  6.24368217E-26  1.27005572E-09 -1.31702531E-09  3.31393107E-25
  2.13029775E-10  7.03487004E-10 -3.31837711E-09 -1.00952403E-10 -5.17933261E-11
 -7.07914363E-26 -1.27005620E-09 -1.31700737E-09 -3.43051092E-25  1.35233655E-21
  2.55181486E-21  3.48003027E-21 -3.44730951E-20  6.10565717E-20  1.11323716E-19
  6.61841980E-22  2.32844466E-20  4.42263044E-10  2.00882424E-22  2.00314451E-20
  2.46345144E-10 -1.17535709E-21 -2.45635576E-20 -6.14752038E-10 -5.09622610E-22
 -4.78944907E-20 -1.18598851E-10 -2.40640509E-21 -9.43962883E-07 -1.52592250E-10
  4.77923907E-21 -1.75205658E-22 -7.52673152E-21 -5.32327772E-07 -2.15920351E-10
  1.36843410E-20  9.48682257E-22 -7.22372260E-21  1.46943017E-06  6.26499768E-11
  7.73365487E-22  8.88457651E-22  3.21619922E-12 -5.32121313E-23 -1.13041102E-21
 -2.46142392E-11  6.38492488E-07 -1.40333140E-22  3.95102422E-21  7.06709285E-21
  2.46290185E-20 -7.46702064E-20  5.69318272E-21 -2.36720542E-21  9.08839577E-07
  3.53409401E-20 -1.17143306E-20  2.01077818E-06  8.51799591E-21  2.42643351E-20
 -7.89616242E-20 -6.39311728E-21 -3.35388712E-21 -9.08995363E-07 -3.49615287E-20
 -1.07374526E-20 -2.01085844E-06 -1.62632596E-21 -3.57222553E-21  5.20925150E-21
 -3.50926154E-21  1.22751745E-19  1.30168879E-19  2.46502179E-19 -9.73704076E-21
  9.37412295E-05  1.38925085E-19 -9.46740193E-21  5.60995821E-05  4.83990870E-19
 -4.90881037E-20 -1.08420971E-04  5.44584419E-19 -4.02251621E-20 -3.98305704E-05
  2.85402079E-21  1.18162064E-10 -2.70475448E-05  2.61849376E-21 -4.82129795E-20
 -3.37237970E-21  1.61804859E-10 -3.15402470E-05 -1.07080554E-21  3.86540484E-21
 -1.68391565E-21  1.61668003E-10  3.25384821E-05 -7.96269855E-21 -1.18554614E-19
 -4.74567110E-06 -1.20453508E-20 -1.59007876E-21 -6.58559404E-06  3.58529167E-11
 -5.21683773E-20 -2.04086385E-21 -7.37121694E-20 -4.52889601E-19 -8.36655129E-19
 -4.81025980E-20  5.79605790E-20 -1.82997073E-05 -1.12877877E-19  5.66641922E-20
 -2.19072380E-05  8.17671115E-20  4.46535883E-19  5.18887670E-19 -4.45627361E-20
 -6.54283105E-20 -1.82994750E-05 -1.54591851E-19 -3.37215764E-20 -2.19065696E-05
  9.52322959E-19  1.85365226E-18  1.71109553E-18 -2.13329001E-17  3.05791260E-17
  6.29526206E-17 -1.76920294E-17  1.50805545E-17 -2.71137580E-03 -1.52023572E-17
  1.28008029E-17 -1.66836849E-03 -2.64624519E-17 -1.28612389E-17  2.75162012E-03
 -2.87959823E-17 -2.73364061E-17  1.31772428E-03 -1.54870565E-18 -5.78774267E-04
  7.53836897E-04  2.85147074E-18 -7.83528342E-19 -4.44399567E-18 -3.26384763E-04
  7.62054454E-04  8.55326666E-18 -3.63646632E-18 -4.19063197E-18  9.00953974E-04
 -1.28360062E-03  9.12844171E-19  5.01589430E-18  2.29019727E-04  5.73472330E-19
 -6.23018574E-19  2.65302806E-04  3.91480741E-04  2.08647009E-18  2.51119689E-18
  1.03402604E-17  4.30959929E-17  1.14395437E-17  5.30490898E-18 -3.73357340E-18
  1.12012088E-03  2.27896428E-17 -7.09950754E-18  2.10490433E-03 -8.64094358E-19
 -1.21626869E-17 -9.02643828E-17 -2.29058472E-18  4.89088340E-19  5.53949486E-06
 -1.80523104E-17 -7.23756476E-18 -3.60913878E-04  1.21486314E-18  2.38548089E-18
  1.97008732E-18 -2.65590665E-17  3.64448268E-17  7.76248466E-17 -2.73553740E-17
  1.88983124E-17 -2.70159824E-03 -2.51485416E-17  1.58990439E-17 -1.70592914E-03
 -3.70572248E-17 -1.57089996E-17  2.40143386E-03 -4.01329773E-17 -3.34670557E-17
  1.46182507E-03 -1.88658213E-18 -7.14691536E-04  7.22060924E-04  3.53717386E-18
 -2.67091885E-18 -5.46357388E-18 -4.03027646E-04  6.27357853E-04  1.06406266E-17
 -7.14637059E-18 -5.06228491E-18  1.11253890E-03 -1.58539476E-03  1.20859227E-18
  6.06179345E-18  3.10112945E-04  7.92014031E-19 -7.64421890E-19  3.31113429E-04
  4.83417880E-04  2.65044910E-18  3.10613806E-18  1.47899602E-17  5.98244885E-17
  3.00032048E-17  6.50143689E-18 -4.61206275E-18  1.27934452E-03  2.59498850E-17
 -7.24106324E-18  2.60382877E-03 -2.93324554E-18 -2.11684500E-17 -1.25485179E-16
 -2.90829132E-18  5.84808443E-19 -9.69862482E-05 -2.40801637E-17 -1.02449145E-17
 -4.41063891E-04  2.01512117E-19  4.17452002E-19  5.70343563E-20 -3.42528667E-18
  2.04743860E-18  8.14958440E-18 -1.09287104E-17  2.67349857E-18 -6.44224347E-04
 -1.03443070E-17  2.12763345E-18 -4.29002278E-04 -1.33893835E-17 -1.28673158E-18
  4.26518107E-04 -1.45140037E-17 -3.44501639E-18  4.15003387E-04 -2.35305269E-19
 -8.77189328E-05  1.55354545E-04  4.23566921E-19 -1.45775497E-18 -6.15704114E-19
 -4.94634224E-05  9.40995599E-05  1.38969315E-18 -3.38938886E-18 -5.00005456E-19
  1.36553703E-04 -5.13328899E-04  3.02025227E-19  1.78197821E-18  1.09910465E-04
  2.91891513E-19 -7.36235349E-20  1.08226367E-04  5.93350388E-05  9.03739897E-19
  4.05947849E-19  4.41689753E-18  1.79206866E-17  2.66985253E-17  1.22626951E-18
 -1.13776474E-18  2.39269254E-04  2.23556819E-18 -1.29565945E-20  5.37721391E-04
 -2.89616739E-18 -1.26884157E-17 -3.35821290E-17  7.65143714E-21  6.96788607E-19
  7.03379742E-05 -3.12136961E-18 -2.15451943E-18  1.63989466E-04 -6.54619766E-20
 -1.33843927E-19 -3.65490481E-20  1.14952809E-18 -7.68131332E-19 -2.68384464E-18
  3.19485355E-18 -8.93486435E-19  4.40630726E-04  2.77293936E-18 -7.35629193E-19
  2.72135888E-04  4.51554329E-18  4.13845028E-19 -4.37324866E-04  4.96648564E-18
  1.19047665E-18 -2.18269717E-04  8.91538318E-20  3.03933422E-05 -1.21984797E-04
 -1.40990365E-19  1.66955771E-19  2.12686104E-19  1.71391054E-05 -1.19942064E-04
 -4.70432193E-19  7.58843395E-19  1.89040176E-19 -4.73121269E-05  2.17199290E-04
 -1.01447560E-19 -7.81268891E-19 -3.95319919E-05 -1.03374172E-19  2.44080175E-20
 -4.50046517E-05 -2.05580635E-05 -3.65289597E-19 -1.42382730E-19 -1.30188827E-18
 -5.71917977E-18 -7.72620043E-18 -4.88486922E-19  4.62086302E-19 -1.21554243E-04
 -1.26644457E-18  3.20641034E-19 -2.12480220E-04  8.09093811E-19  3.97008163E-18
  1.00189017E-17 -6.72351257E-20 -3.21875479E-19 -6.30228576E-05  6.02755016E-19
  4.92692952E-19 -8.29891001E-05  7.80797870E-20  1.38042163E-19  3.05514562E-19
 -2.34989263E-18  4.98115823E-18  8.08831629E-18  2.47582390E-18  1.51901824E-18
 -7.35991786E-05  2.57466248E-18  1.35784008E-18 -3.21874128E-05  2.34562629E-18
 -1.87364163E-18  1.75621289E-04  2.56794745E-18 -3.54033522E-18 -8.50607534E-06
 -1.73585227E-19 -6.63376907E-05  2.92974303E-05  3.34531469E-19  5.24256783E-19
 -5.43516452E-19 -3.74110722E-05  5.97638678E-05  9.31176286E-19  1.03988989E-18
 -5.51483187E-19  1.03262931E-04  5.62329100E-05  1.10043352E-20 -9.39021522E-20
 -1.81212458E-05 -5.50476831E-20 -8.39658394E-20 -1.26340847E-05  4.48695646E-05
 -1.26748251E-19  2.72241765E-19 -3.66127063E-19 -1.45493145E-18 -1.24675426E-17
  3.35138635E-19 -6.58499584E-20  7.01015128E-05  3.08640922E-18 -1.28064237E-18
  1.01852276E-04  1.41878634E-18  4.71313606E-18  4.48405727E-19 -4.97030930E-19
 -3.41498710E-19 -5.76463220E-05 -2.07277583E-18 -3.36943424E-19 -1.80767089E-04
  9.22595454E-04  2.22321168E-03 -3.27932583E-03 -1.06167340E-02  6.96446103E-03
  4.99762291E-02 -6.02266313E-08  4.25199434E-03  2.92472906E-19 -4.89878937E-08
  4.96234215E-03  3.53067472E-19 -6.57596074E-08 -2.68487918E-03  2.95556067E-20
  1.91280190E-08 -6.85792649E-03 -1.42325572E-18 -1.49695599E-04  5.92566185E-19
 -2.42652783E-20  7.53118539E-05 -1.93708642E-09 -2.45878816E-04  1.69485088E-18
  6.20544552E-20  1.80684886E-04 -6.15446691E-09 -1.17844603E-03  1.43159274E-18
  1.56961795E-19  1.10150629E-03 -1.86713562E-08 -2.45280778E-20 -1.54100724E-09
  6.39316623E-05 -1.21591139E-20  4.67356087E-19 -1.00672678E-09  2.13550497E-05
  1.09802626E-03  3.62599016E-03 -1.71031844E-02  5.20331203E-04 -2.66967708E-04
  3.21808923E-19  6.54606131E-03 -6.78814974E-03  1.70805073E-18  1.09798802E-03
  3.62587955E-03 -1.71034229E-02 -5.20324114E-04 -2.66950719E-04 -3.64869883E-19
 -6.54606381E-03 -6.78805728E-03 -1.76813777E-18  4.32093630E-20  8.29338530E-20
  9.81099301E-20 -1.05677965E-18  1.76170144E-18  3.34151153E-18 -2.87077482E-19
  7.22192031E-19  2.26369977E-06 -3.32461320E-19  6.16147625E-19  5.59698320E-07
 -3.59134077E-19 -7.25060154E-19 -1.43696240E-05 -3.73096843E-19 -1.43105647E-18
  3.67250054E-06 -7.27912462E-20 -2.86825430E-05 -7.72128124E-07  1.45187410E-19
 -6.36837227E-20 -2.26516387E-19 -1.61747379E-05 -5.55559934E-06  4.19675872E-19
 -9.15309608E-20 -2.13995586E-19  4.46492400E-05 -9.04878851E-06  2.93810242E-20
  5.37140758E-20  2.55596150E-06  5.92275335E-21 -3.37082363E-20  2.02591035E-06
  1.94008522E-05  1.38706698E-20  1.20892484E-19  3.26951470E-19  1.17417475E-18
 -1.33524955E-18  1.83006403E-19 -8.71544597E-20  2.80655217E-05  1.01067098E-18
 -3.06012307E-19  6.75617208E-05  1.51428111E-19  3.34298701E-19 -3.16096958E-18
 -1.86391295E-19 -8.54333156E-20 -2.71700395E-05 -1.09572382E-18 -3.72806328E-19
 -5.46371564E-05 -5.62804351E-21 -6.55940651E-21 -6.62564876E-20  3.34898599E-19
 -1.03736313E-18 -1.39907353E-18 -1.23632186E-18 -1.86098695E-19 -6.26482580E-05
 -1.15963676E-18 -1.80448319E-19 -4.28126612E-05 -1.45127081E-18  3.64750417E-19
  3.64944286E-05 -1.58193716E-18  6.10562659E-19  4.28622188E-05  2.41514243E-20
  9.86437727E-06  1.41143107E-05 -5.19810155E-20 -1.70278505E-19  8.77259706E-20
  5.56324249E-06  7.37083484E-06 -1.29694088E-19 -4.05577955E-19  9.48202493E-20
 -1.53548628E-05 -5.48867205E-05  1.72476835E-20  1.71374538E-19  1.19897908E-05
  3.28035076E-20  1.52287722E-20  1.15800371E-05 -6.67193979E-06  9.99639397E-20
 -3.71153673E-20  3.45785293E-19  1.47142915E-18  4.52593349E-18  1.52437709E-20
 -7.39366379E-20  6.10354033E-06 -5.03322058E-19  2.52737402E-19  1.64434329E-05
 -4.99557319E-19 -1.90487488E-18 -2.11367131E-18  1.30948346E-19  1.43164674E-19
  2.50990712E-05  3.60647700E-19 -2.48110836E-20  5.84675176E-05  1.40129989E-04
  3.37676309E-04 -4.98086014E-04 -1.61254080E-03  1.05780908E-03  7.59072505E-03
 -9.14762492E-09  6.45821434E-04  4.44227477E-20 -7.44061004E-09  7.53713827E-04
  5.36262570E-20 -9.98801047E-09 -4.07797468E-04  4.48910389E-21  2.90529189E-09
 -1.04162790E-03 -2.16173630E-19 -2.27367721E-05  9.00029288E-20 -3.68557330E-21
  1.14388698E-05 -2.94217685E-10 -3.73457247E-05  2.57425325E-19  9.42524709E-21
  2.74436330E-05 -9.34781735E-10 -1.78990291E-04  2.17439913E-19  2.38404108E-20
  1.67304167E-04 -2.83593088E-09 -3.72548905E-21 -2.34058521E-10  9.71036990E-06
 -1.84680782E-21  7.09851788E-20 -1.52908419E-10  3.24354825E-06  1.66775597E-04
  5.50739718E-04 -2.59774643E-03  7.90313949E-05 -4.05488471E-05  4.88784988E-20
  9.94259721E-04 -1.03102974E-03  2.59430207E-19  1.66769789E-04  5.50722918E-04
 -2.59778264E-03 -7.90303181E-05 -4.05462667E-05 -5.54188864E-20 -9.94260101E-04
 -1.03101569E-03 -2.68556629E-19 -7.05985064E-19 -1.27551169E-18 -2.55638265E-18
  2.09400625E-17 -4.42924516E-17 -7.35591127E-17 -1.85052626E-17 -1.34722044E-17
 -2.71130462E-03 -1.54511261E-17 -1.17630023E-17 -1.66831730E-03 -2.50214718E-17
  1.72600473E-17  2.75155082E-03 -2.81712600E-17  3.13948185E-17  1.31765824E-03
  1.40220078E-18  5.78772282E-04  7.53838127E-04 -3.00911603E-18 -5.69611318E-19
  4.78575461E-18  3.26388973E-04  7.62068552E-04 -8.22729933E-18 -4.80099127E-18
  4.66759538E-18 -9.00953550E-04 -1.28356605E-03 -3.54955110E-20  3.92594506E-18
  2.29011915E-04  6.38721722E-19  7.63159126E-19  2.65312059E-04 -3.91478831E-04
  2.25841056E-18 -2.33380163E-18  1.67481284E-18  1.28957929E-17  1.03009154E-16
 -1.67661790E-18 -8.30558263E-19  5.53495843E-06 -2.05490120E-17  7.26622219E-18
 -3.60910881E-04 -1.13099629E-17 -4.19183998E-17  6.55875434E-18  5.54886680E-18
  4.60160113E-18  1.12009690E-03  2.48183755E-17  5.92866893E-18  2.10485421E-03
 -8.32881961E-19 -1.47853628E-18 -3.29956142E-18  2.56412623E-17 -5.60095214E-17
 -9.09452132E-17 -2.83594854E-17 -1.63597694E-17 -2.70149060E-03 -2.54556507E-17
 -1.44333186E-17 -1.70585391E-03 -3.52776907E-17  2.14859436E-17  2.40132720E-03
 -3.93613733E-17  3.90565738E-17  1.46173439E-03  1.75731455E-18  7.14692783E-04
  7.22056857E-04 -3.69971019E-18 -2.40676653E-18  5.93368623E-18  4.03043214E-04
  6.27369306E-04 -1.00806816E-17 -8.58435276E-18  5.87620381E-18 -1.11252787E-03
 -1.58534368E-03  3.75422611E-20  4.71585133E-18  3.10101885E-04  8.72582856E-19
  9.47284785E-19  3.31123131E-04 -4.83411604E-04  2.86275402E-18 -2.87665854E-18
  4.08948937E-18  2.25319230E-17  1.43076661E-16 -2.11964099E-18 -1.02728979E-18
 -9.69943165E-05 -2.75664164E-17  1.04983129E-17 -4.41063195E-04 -1.58321837E-17
 -5.79118248E-17 -5.92390520E-18  6.77216297E-18  5.66308540E-18  1.27930937E-03
  2.88582293E-17  6.01327247E-18  2.60375850E-03 -4.98253217E-20 -5.68126713E-20
 -5.89749587E-19  2.98169009E-18 -9.30019733E-18 -1.25403741E-17 -1.10518211E-17
 -1.65402073E-18 -6.44204186E-04 -1.03818727E-17 -1.59530911E-18 -4.28988428E-04
 -1.31708090E-17  3.27849671E-18  4.26500992E-04 -1.44191257E-17  5.45639070E-18
  4.14987588E-04  2.11940133E-19  8.77211123E-05  1.55352313E-04 -4.64674907E-19
 -1.42531554E-18  7.83173954E-19  4.94722564E-05  9.41002026E-05 -1.15360418E-18
 -3.56584118E-18  8.42562760E-19 -1.36546966E-04 -5.13316662E-04  1.58289910E-19
  1.61676011E-18  1.09907802E-04  3.01776802E-19  1.36467878E-19  1.08226291E-04
 -5.93318628E-05  9.29787051E-19 -3.28370241E-19  3.10349531E-18  1.33432760E-17
  4.05765516E-17  1.68126083E-19 -6.97765632E-19  7.03382126E-05 -4.33291195E-18
  2.16432869E-18  1.63992757E-04 -4.47931493E-18 -1.71980510E-17 -1.89070772E-17
  1.19580607E-18  1.32007553E-18  2.39260306E-04  3.37619274E-18 -1.59004595E-19
  5.37701354E-04 -2.16215442E-20 -3.04793970E-20 -1.87550697E-19  1.07037127E-18
 -3.16363232E-18 -4.48485870E-18 -3.23755140E-18 -6.05917674E-19 -4.40630277E-04
 -2.78599112E-18 -5.54300812E-19 -2.72135096E-04 -4.43987181E-18  1.16792796E-18
  4.37325602E-04 -4.93367936E-18  1.89370226E-18  2.18267397E-04  6.58083101E-20
  3.03934121E-05  1.21985859E-04 -1.66769310E-19 -1.55717434E-19  2.71999868E-19
  1.71402907E-05  1.19944133E-04 -4.10773258E-19 -8.19990603E-19  2.76135614E-19
 -4.73122406E-05 -2.17198102E-04  5.16469458E-20  7.24034498E-19  3.95316108E-05
  1.06800682E-19  4.83849653E-20  4.50052567E-05 -2.05578390E-05  3.74319620E-19
 -1.12044795E-19  8.46832580E-19  4.13325691E-18  1.25348158E-17  1.21863956E-19
 -3.09640102E-19  6.30240897E-05 -1.00941021E-18  4.33748312E-19  8.29921859E-05
 -1.35763964E-18 -5.53265109E-18 -4.93436340E-18  4.78912760E-19  5.37838994E-19
  1.21552695E-04  1.64853936E-18  1.98714944E-19  2.12475484E-04 -1.11989603E-19
 -2.20611631E-19 -1.83607378E-19  2.49527972E-18 -3.60033654E-18 -7.55815059E-18
  2.38264502E-18 -1.75359559E-18 -7.35885548E-05  2.54617841E-18 -1.45757389E-18
 -3.21799693E-05  2.51082503E-18  1.57874660E-18  1.75611353E-04  2.63959354E-18
  3.19121915E-18 -8.51506148E-06  1.64636890E-19  6.63360455E-05  2.92969215E-05
 -3.37187395E-19  5.48778509E-19  5.14363390E-19  3.74074571E-05  5.97649901E-05
 -9.92150909E-19  9.06425577E-19  4.63813847E-19 -1.03265094E-04  5.62384907E-05
 -9.76915518E-20 -2.18833572E-19 -1.81224706E-05 -4.75699296E-20  7.49126645E-20
 -1.26333642E-05 -4.48703872E-05 -1.07043917E-19 -2.83074299E-19 -1.35933944E-18
 -4.91641265E-18 -1.97226557E-18 -4.65060552E-19  2.66885852E-19 -5.76487898E-05
 -1.88090650E-18  3.65902487E-19 -1.80771519E-04  2.21529683E-19  1.30268873E-18
  1.15459917E-17  4.01496297E-19  1.29859235E-19  7.00996003E-05  2.84090317E-18
  1.17212469E-18  1.01849090E-04  9.22599450E-04  2.22322131E-03 -3.27934004E-03
 -1.06167800E-02  6.96449120E-03  4.99764456E-02 -6.02268921E-08  4.25201276E-03
  2.92474173E-19 -4.89881059E-08  4.96236365E-03  3.53069002E-19 -6.57598923E-08
 -2.68489081E-03  2.95557347E-20  1.91281019E-08 -6.85795620E-03 -1.42326189E-18
 -1.49696247E-04  5.92568752E-19 -2.42653834E-20  7.53121801E-05 -1.93709481E-09
 -2.45879881E-04  1.69485822E-18  6.20547240E-20  1.80685669E-04 -6.15449357E-09
 -1.17845113E-03  1.43159894E-18  1.56962475E-19  1.10151106E-03 -1.86714371E-08
 -2.45281840E-20 -1.54101392E-09  6.39319392E-05 -1.21591666E-20  4.67358111E-19
 -1.00673114E-09  2.13551422E-05  1.09803102E-03  3.62600586E-03 -1.71032585E-02
  5.20333457E-04 -2.66968865E-04  3.21810317E-19  6.54608967E-03 -6.78817915E-03
  1.70805813E-18  1.09799278E-03  3.62589525E-03 -1.71034969E-02 -5.20326368E-04
 -2.66951876E-04 -3.64871464E-19 -6.54609217E-03 -6.78808668E-03 -1.76814543E-18
  3.89724333E-20  7.21399406E-20  1.13377447E-19 -1.03817235E-18  1.94877481E-18
  3.42370711E-18  3.27410527E-19  6.92816927E-19 -2.26703899E-06  3.44821649E-19
  6.01178539E-19 -5.61998878E-07  2.87756017E-19 -7.67685234E-19  1.43739161E-05
  3.42173610E-19 -1.47953327E-18 -3.66976812E-06 -7.34490519E-20 -2.86828574E-05
  7.72087271E-07  1.45250087E-19  5.30881335E-20 -2.30889465E-19 -1.61752586E-05
  5.55525914E-06  4.11930820E-19  1.49253662E-19 -2.24998747E-19  4.46492393E-05
  9.04809491E-06  1.76159578E-20  2.98215919E-22 -2.55583974E-06 -9.15711138E-21
 -3.49876793E-20 -2.02659086E-06  1.94008610E-05 -2.23936079E-20  1.19214645E-19
  1.02477635E-19  3.22436690E-19 -3.20282787E-18  1.62981080E-19 -5.67106353E-20
  2.71707171E-05  1.13710090E-18 -4.05925587E-19  5.46378195E-05  3.66256163E-19
  1.14036773E-18 -1.63729122E-18 -2.02115301E-19 -1.18375503E-19 -2.80650453E-05
 -1.02884812E-18 -2.79678100E-19 -6.75614667E-05  2.26347289E-20  4.67714888E-20
  6.47325790E-21 -3.85559895E-19  2.38661018E-19  9.27487957E-19 -1.22249701E-18
  3.00527377E-19 -6.26514172E-05 -1.15543048E-18  2.38193273E-19 -4.28148311E-05
 -1.47587156E-18 -1.48603279E-19  3.64968222E-05 -1.59263028E-18 -3.90389942E-19
  4.28646253E-05 -2.61408844E-20 -9.86367936E-06  1.41147630E-05  4.79008554E-20
 -1.73928977E-19 -6.95763223E-20 -5.56197508E-06  7.37084667E-06  1.56297346E-19
 -3.85742217E-19 -5.61498975E-20  1.53550329E-05 -5.48889198E-05  3.34109619E-20
  1.89955845E-19  1.19902724E-05  3.16924097E-20 -8.39574435E-21  1.15802198E-05
  6.67203396E-06  9.70364487E-20  4.54580267E-20  4.93482515E-19  1.98618084E-18
  2.96542077E-18  1.34232045E-19 -1.23415570E-19  2.50998919E-05  2.35294765E-19
  7.90592252E-21  5.84694051E-05 -3.21540283E-19 -1.39779621E-18 -3.76391125E-18
 -2.65749755E-21  7.30783020E-20  6.10415073E-06 -3.69996843E-19 -2.49206864E-19
  1.64445548E-05  1.40125107E-04  3.37664544E-04 -4.98068660E-04 -1.61248462E-03
  1.05777222E-03  7.59046059E-03 -9.14730621E-09  6.45798934E-04  4.44212000E-20
 -7.44035081E-09  7.53687567E-04  5.36243887E-20 -9.98766248E-09 -4.07783260E-04
  4.48894748E-21  2.90519067E-09 -1.04159161E-03 -2.16166099E-19 -2.27359799E-05
  8.99997930E-20 -3.68544489E-21  1.14384712E-05 -2.94207434E-10 -3.73444235E-05
  2.57416356E-19  9.42491871E-21  2.74426769E-05 -9.34749167E-10 -1.78984055E-04
  2.17432337E-19  2.38395802E-20  1.67298338E-04 -2.83583208E-09 -3.72535926E-21
 -2.34050367E-10  9.71003159E-06 -1.84674348E-21  7.09827056E-20 -1.52903091E-10
  3.24343525E-06  1.66769786E-04  5.50720530E-04 -2.59765592E-03  7.90286414E-05
 -4.05474343E-05  4.88767958E-20  9.94225080E-04 -1.03099381E-03  2.59421168E-19
  1.66763979E-04  5.50703731E-04 -2.59769213E-03 -7.90275647E-05 -4.05448541E-05
 -5.54169556E-20 -9.94225460E-04 -1.03097977E-03 -2.68547273E-19  3.20106004E-20
  1.46304452E-19 -1.39423345E-19 -2.45820899E-19 -3.05771705E-18 -2.09834900E-18
  1.85792325E-17  3.83846528E-19 -1.40858506E-03  3.91515533E-18  2.10385041E-19
 -9.26567833E-04  6.24968794E-17  3.78402167E-19  2.29619408E-03  4.15966313E-17
  7.70427271E-19  4.27412474E-04  6.45998063E-20 -4.40086051E-09  2.52736183E-04
  3.69296860E-20  3.62229607E-19  1.35514067E-19 -1.43231391E-08  7.88822880E-04
  1.91996085E-19  3.66684213E-18  2.47082564E-19 -5.76994018E-09 -6.63137252E-05
  9.01613872E-20 -1.83549432E-17 -5.15182849E-05  2.42029952E-20  3.15230213E-21
 -3.22583069E-06 -1.84278293E-09  6.85867996E-20  1.63507073E-20 -1.77126695E-18
 -1.32259413E-17 -1.88031023E-16 -1.63110896E-18  8.94841849E-19  2.53389449E-04
  3.59764960E-17 -3.08370272E-17 -4.44234741E-06  2.09167658E-18  1.41435966E-17
  1.93204527E-16 -1.61211727E-18 -9.13899287E-19  2.53385477E-04  3.72558334E-17
  3.19307881E-17 -4.45134169E-06  9.53399048E-20  3.36799533E-19 -3.79585226E-19
 -4.74620529E-19 -7.35424709E-18 -5.17437406E-18  4.26524200E-17  1.01675354E-18
 -3.42102325E-03  1.25687486E-17  3.58804516E-19 -2.10579971E-03  1.48473221E-16
  9.71379279E-19  5.42817049E-03  9.94155859E-17  1.87009717E-18  9.86240882E-04
  1.70186401E-19 -1.33257968E-08  8.04995365E-04  9.48697548E-20  1.76784777E-18
  2.87919912E-19 -3.31751549E-08  1.80376873E-03  4.49567088E-19  7.62415625E-18
  5.97298208E-19 -1.41312900E-08 -1.22527203E-04  2.21814141E-19 -4.39056640E-17
 -1.25894024E-04 -1.00032793E-19  1.40248449E-20 -6.46035014E-06 -4.49683360E-09
  1.12365411E-19  3.31103801E-20 -4.59427800E-18 -3.28889940E-17 -4.47353132E-16
 -3.40348897E-18  1.72278469E-18  5.91929100E-04  8.53907435E-17 -7.32619683E-17
  1.68604713E-06  5.33159313E-18  3.49807182E-17  4.59972662E-16 -3.40473877E-18
 -1.78278617E-18  5.91920112E-04  8.84779543E-17  7.58565708E-17  1.66432982E-06
 -1.91070224E-19 -4.76325536E-19  6.89901738E-19  4.09968701E-19  1.13621594E-17
  8.44964455E-18 -6.06810231E-17 -1.78114698E-18  5.15665232E-03 -2.77329631E-17
 -1.85561828E-19  2.82273841E-03 -2.24517178E-16 -1.69897491E-18 -7.87260499E-03
 -1.52517325E-16 -2.94987840E-18 -1.34274053E-03 -2.90351182E-19  2.63729461E-08
 -1.67433968E-03 -1.54922539E-19 -4.82500248E-18 -3.46410163E-19  4.67852080E-08
 -2.46876981E-03 -6.53712742E-19 -8.32110835E-18 -9.20722322E-19  2.26612369E-08
  5.14218384E-05 -3.57745024E-19  6.73574070E-17  2.02614382E-04  5.77793338E-19
 -3.99865287E-20  1.54215856E-05  7.28199067E-09 -2.27678423E-20 -3.78466380E-20
  7.86499923E-18  5.39150257E-17  6.77877590E-16  3.87973066E-18 -1.56824800E-18
 -8.32034575E-04 -1.28054611E-16  1.09703006E-16 -3.81535367E-06 -8.88939861E-18
 -5.68059217E-17 -6.97993529E-16  4.00049771E-18  1.68290542E-18 -8.32023576E-04
 -1.32855665E-16 -1.13561281E-16 -3.78513608E-06 -2.77548764E-19 -7.00706138E-19
  1.01048923E-18  4.58560290E-19  1.76019053E-17  1.39454083E-17 -9.36680340E-17
 -2.58159338E-18  6.60136740E-03 -4.49711906E-17 -3.20741832E-19  3.59817927E-03
 -3.46542239E-16 -2.90940231E-18 -1.04131588E-02 -2.39682805E-16 -4.68138444E-18
 -1.59205457E-03 -3.83322381E-19  3.89336347E-08 -2.13775857E-03 -1.94331162E-19
 -6.27921205E-18 -5.24462028E-19  6.76819233E-08 -3.29945657E-03 -9.48553659E-19
 -1.01385860E-17 -1.36272427E-18  2.73663972E-08 -2.06813547E-04 -5.69892200E-19
  1.05228739E-16  3.33869664E-04  1.03400608E-18 -7.46649501E-20  8.07930138E-05
  8.50523497E-09  7.70628829E-20 -7.47847118E-20  1.16523003E-17  8.58841666E-17
  1.04456527E-15  5.62627392E-18 -2.41179922E-18 -1.04141896E-03 -1.91982746E-16
  1.62229932E-16  1.90802296E-04 -1.30430537E-17 -9.00520197E-17 -1.07683999E-15
  5.81102551E-18  2.49812306E-18 -1.04140030E-03 -1.99455095E-16 -1.67824129E-16
  1.90850452E-04 -2.19002542E-19 -5.35003638E-19  8.13881780E-19 -3.92965191E-19
  1.77413523E-17  1.77889822E-17 -9.10806735E-17 -1.93877893E-18  8.25990116E-04
 -5.67607469E-17 -3.25583304E-19  2.39662061E-04 -3.42183541E-16 -4.16153272E-18
 -2.87719772E-03 -2.55380729E-16 -5.20604989E-18  4.95849136E-04 -1.19434246E-19
  2.08884211E-08 -4.13062367E-04 -8.66827799E-21 -2.11934852E-18 -4.41438061E-19
  3.95482026E-08 -1.02031834E-03 -6.73759119E-19  2.52457105E-18 -1.10741260E-18
  1.50584369E-08 -1.45299908E-03 -6.45775650E-19  1.09555491E-16  4.22779677E-04
  1.77707238E-18 -1.35022710E-19  3.20543328E-04  5.56789386E-09  6.01379757E-19
 -1.37743201E-19  9.81081157E-18  9.75445688E-17  1.02467468E-15  3.56192051E-18
 -1.95399888E-18  1.22538350E-05 -1.65423516E-16  1.30065449E-16  1.01156949E-03
 -1.03528144E-17 -1.00324578E-16 -1.06206570E-15  3.78231558E-18  1.66863878E-18
  1.22543346E-05 -1.73112480E-16 -1.34053333E-16  1.01156925E-03 -2.83172418E-20
 -6.73589513E-20  1.06813151E-19 -1.24346137E-19  2.66686538E-18  2.95850249E-18
 -1.34350155E-17 -2.41043969E-19 -3.19644827E-04 -9.40704704E-18 -4.89339725E-20
 -2.22094431E-04 -5.08933925E-17 -7.19245077E-19  1.47861748E-04 -3.94388314E-17
 -8.19718571E-19  2.34569272E-04  2.35723717E-21  1.92800651E-09  7.03039562E-05
  1.29473650E-20  8.90316794E-22 -5.96699000E-20  3.86254446E-09  2.23210521E-05
 -7.97605380E-20  1.35159057E-18 -1.46204673E-19  1.02599775E-09 -3.13248689E-04
 -1.02507628E-19  1.67340457E-17  7.01246444E-05  3.23300082E-19 -2.48564941E-20
  6.63934067E-05  4.84801704E-10  1.30352816E-19 -2.54480132E-20  1.32789937E-18
  1.55004699E-17  1.51877009E-16  3.74142331E-19 -2.56853088E-19  8.27427299E-05
 -2.27262605E-17  1.70025921E-17  2.14438726E-04 -1.34384602E-18 -1.58100069E-17
 -1.57868020E-16  4.09933667E-19  1.85616031E-19  8.27417608E-05 -2.38940435E-17
 -1.74762795E-17  2.14435752E-04  8.80967055E-20  9.30665364E-19 -1.41631514E-17
  3.17787263E-17 -2.57678663E-17 -8.08101818E-17  1.04065397E-18 -3.76613539E-17
  9.01383402E-08  3.25242036E-19 -4.27720053E-17  6.38221165E-08 -1.40360304E-18
  1.43000686E-17 -9.78756690E-08 -3.57457327E-19  6.95954452E-17 -8.04432876E-08
 -1.73007915E-18  1.51321881E-03  1.54661950E-09  2.62442953E-18 -2.96303794E-19
 -1.22727255E-17  8.53347536E-04  1.52745854E-08  1.30401491E-17  1.50271344E-18
 -2.19452037E-17 -2.35556865E-03  3.45853087E-08  5.70775398E-17  1.17986048E-18
 -7.50093237E-09 -1.31809279E-19  1.59494087E-18  1.43908959E-08 -1.02353478E-03
 -2.48437173E-19 -4.43071745E-18  8.54306131E-18 -4.69533415E-17  2.09256038E-17
  5.29301926E-18  2.53919608E-18 -1.45705641E-03 -8.03171910E-17  2.77925969E-17
 -3.22346386E-03  1.08499666E-17 -4.69905260E-17  1.47851068E-17 -6.43693347E-18
  9.33044974E-19  1.45702217E-03  8.04637321E-17  2.91143066E-17  3.22341693E-03
 -3.72087400E-19 -8.94609382E-19  1.41678904E-18 -1.90952552E-18  3.69781817E-17
  4.19366048E-17 -1.86004039E-16 -3.14725890E-18 -5.92391889E-03 -1.32468369E-16
 -7.19693172E-19 -3.90708044E-03 -7.04377526E-16 -1.02686118E-17  3.96213550E-03
 -5.50533411E-16 -1.14857551E-17  3.77525710E-03  1.04720040E-19  1.08915665E-08
  1.47266578E-03  2.28812416E-19  1.33241227E-18 -8.15663411E-19  4.07461853E-08
  8.70007129E-04 -1.03759827E-18  2.16507386E-17 -1.95854081E-18  2.71753655E-08
 -4.64976801E-03 -1.43851230E-18  2.32985071E-16  9.93723378E-04  4.62577991E-18
 -3.58078915E-19  9.81784105E-04  1.29815398E-08  1.92605848E-18 -3.70417654E-19
  1.78274172E-17  2.17419153E-16  2.10007627E-15  4.79554331E-18 -3.55945404E-18
  1.41259275E-03 -3.08287747E-16  2.27494725E-16  3.18522982E-03 -1.78391881E-17
 -2.21381036E-16 -2.18433372E-15  5.28755413E-18  2.47300882E-18  1.41255476E-03
 -3.24518211E-16 -2.33653217E-16  3.18513179E-03 -1.72981358E-02 -4.16839444E-02
  6.14854793E-02  1.99057676E-01 -1.30579652E-01 -9.37025644E-01  1.12921481E-06
 -7.97224562E-02  2.51337273E-18  9.18494922E-07 -9.30410704E-02  4.04460468E-18
  1.23295494E-06  5.03399454E-02  1.14623416E-18 -3.58639390E-07  1.28582190E-01
 -7.05292415E-19  2.80670665E-03  4.57755932E-18 -4.89767394E-19 -1.41205408E-03
  3.63192599E-08  4.61008684E-03  1.57258180E-17  1.50011435E-18 -3.38773803E-03
  1.15392726E-07  2.20951874E-02  7.04403439E-17 -7.92714089E-20 -2.06526114E-02
  3.50077225E-07 -5.11651014E-19  2.88930023E-08 -1.19868202E-03 -2.65528139E-19
 -2.50346166E-18  1.88755499E-08 -4.00394939E-04 -2.05873629E-02 -6.79852367E-02
  3.20674903E-01 -9.75591175E-03  5.00549147E-03  3.51923392E-18 -1.22734897E-01
  1.27273916E-01 -2.99774911E-17 -2.05866459E-02 -6.79831628E-02  3.20679373E-01
  9.75577883E-03  5.00517295E-03 -4.21754830E-18  1.22734944E-01  1.27272182E-01
  1.67644040E-17  6.97464906E-20  7.36810368E-19 -1.12130033E-17  2.51592998E-17
 -2.04005012E-17 -6.39776475E-17  8.23966540E-19 -2.98165886E-17  7.91335363E-08
  2.57562324E-19 -3.38627048E-17  5.52284040E-08 -1.11093595E-18  1.13214061E-17
 -8.59854602E-08 -2.82748157E-19  5.50988959E-17 -6.71943006E-08 -1.36970834E-18
  1.19801917E-03 -9.91978125E-10  2.07776725E-18 -2.34588907E-19 -9.71634759E-18
  6.75597409E-04  9.67294213E-09  1.03239193E-17  1.18968143E-18 -1.73740728E-17
 -1.86490967E-03  3.05067337E-08  4.51884337E-17  9.33994100E-19 -6.44712157E-09
 -1.04356387E-19  1.26271894E-18  1.07533202E-08 -8.10335080E-04 -1.96689637E-19
 -3.50781003E-18  6.76355733E-18 -3.71731838E-17  1.65659651E-17  4.19049650E-18
  2.01028915E-18 -1.15355682E-03 -6.35872147E-17  2.20034002E-17 -2.55202663E-03
  8.58995131E-18 -3.72024140E-17  1.17063360E-17 -5.09613707E-18  7.38693702E-19
  1.15352659E-03  6.37034572E-17  2.30499409E-17  2.55198524E-03 -3.01601921E-19
 -7.24283694E-19  1.14849932E-18 -1.56224912E-18  3.00299161E-17  3.41033558E-17
 -1.50993972E-16 -2.54864402E-18 -4.88150751E-03 -1.07745921E-16 -5.83090133E-19
 -3.21534687E-03 -5.71919710E-16 -8.35467385E-18  3.31135780E-03 -4.47249236E-16
 -9.33370451E-18  3.09186278E-03  8.81589459E-20  7.60675595E-09  1.21533749E-03
  1.88041178E-19  1.12500355E-18 -6.60973954E-19  3.21421152E-08  7.35492191E-04
 -8.39086397E-19  1.77489255E-17 -1.58729696E-18  2.35378926E-08 -3.79157597E-03
 -1.16916771E-18  1.89246980E-16  8.08070207E-04  3.76701308E-18 -2.91584433E-19
  8.00206342E-04  1.12097939E-08  1.57101913E-18 -3.01514447E-19  1.44571438E-17
  1.76709476E-16  1.70507850E-15  3.86391283E-18 -2.88081896E-18  1.16026772E-03
 -2.50006965E-16  1.84331899E-16  2.59658839E-03 -1.44559292E-17 -1.79908461E-16
 -1.77356468E-15  4.26433494E-18  1.99411106E-18  1.16023464E-03 -2.63189812E-16
 -1.89312786E-16  2.59650376E-03 -1.46488007E-02 -3.52997456E-02  5.20685316E-02
  1.68570547E-01 -1.10580430E-01 -7.93513361E-01  9.56267360E-07 -6.75123830E-02
  2.12843144E-18  7.77820754E-07 -7.87911548E-02  3.42514410E-18  1.04411894E-06
  4.26300172E-02  9.70680071E-19 -3.03711163E-07  1.08888894E-01 -5.97271759E-19
  2.37683914E-03  3.87647286E-18 -4.14755961E-19 -1.19578775E-03  3.07567015E-08
  3.90401856E-03  1.33172948E-17  1.27036094E-18 -2.86888134E-03  9.77194921E-08
  1.87111490E-02  5.96518936E-17 -6.71304169E-20 -1.74895140E-02  2.96460356E-07
 -4.33287945E-19  2.44678292E-08 -1.01509516E-03 -2.24860576E-19 -2.12003833E-18
  1.59846224E-08 -3.39071546E-04 -1.74342587E-02 -5.75728039E-02  2.71561213E-01
 -8.26172301E-03  4.23886410E-03  2.98023768E-18 -1.03937156E-01  1.07780991E-01
 -2.53862206E-17 -1.74336516E-02 -5.75710477E-02  2.71564998E-01  8.26161045E-03
  4.23859436E-03 -3.57160015E-18  1.03937196E-01  1.07779523E-01  1.41968138E-17
  3.09776975E-20  3.27253698E-19 -4.98025249E-18  1.11744978E-17 -9.06086356E-18
 -2.84156450E-17  3.65886817E-19 -1.32430336E-17  3.67213166E-08  1.14350309E-19
 -1.50401139E-17  2.52564812E-08 -4.93712678E-19  5.02839695E-18 -4.17833740E-08
 -1.25796530E-19  2.44721593E-17 -2.97462720E-08 -6.08355826E-19  5.32099977E-04
 -1.03154472E-09  9.22839877E-19 -1.04194948E-19 -4.31551424E-18  3.00066455E-04
  3.07546252E-09  4.58536610E-18  5.28396854E-19 -7.71669197E-18 -8.28299261E-04
  1.25122876E-08  2.00704333E-17  4.14925457E-19 -2.51911866E-09 -4.63484931E-20
  5.60836261E-19  5.01127649E-09 -3.59910165E-04 -8.73592394E-20 -1.55799324E-18
  3.00404120E-18 -1.65103815E-17  7.35864156E-18  1.86121158E-18  8.92867756E-19
 -5.12352183E-04 -2.82423931E-17  9.77292099E-18 -1.13348139E-03  3.81521603E-18
 -1.65235281E-17  5.19846447E-18 -2.26344470E-18  3.28092245E-19  5.12338454E-04
  2.82937271E-17  1.02375079E-17  1.13346447E-03 -2.01063665E-19 -4.85856164E-19
  7.62355505E-19 -8.98865119E-19  1.92794534E-17  2.14396213E-17 -9.73424867E-17
 -1.71726252E-18 -2.42333776E-03 -6.77841437E-17 -3.73866856E-19 -1.65146414E-03
 -3.68040860E-16 -5.21398967E-18  1.19711402E-03 -2.85454300E-16 -5.93287820E-18
  1.72893914E-03  2.40307224E-20  7.35611157E-09  5.67616545E-04  9.78897724E-20
  2.07706325E-19 -4.34928949E-19  2.42596214E-08  1.91235493E-04 -5.73103973E-19
  9.84280047E-18 -1.05151276E-18  1.62798942E-08 -2.28252473E-03 -7.41911589E-19
  1.21071881E-16  5.08272113E-04  2.32907216E-18 -1.79921044E-19  4.84581978E-04
  7.40718272E-09  9.44824750E-19 -1.85962237E-19  9.51787403E-18  1.12111657E-16
  1.09810210E-15  2.73707837E-18 -1.90705353E-18  6.15442948E-04 -1.63928858E-16
  1.22419960E-16  1.56711947E-03 -9.62187818E-18 -1.14338533E-16 -1.14147838E-15
  2.99004957E-18  1.38320398E-18  6.15424385E-04 -1.72373152E-16 -1.25818937E-16
  1.56707207E-03 -1.10842555E-02 -2.67101320E-02  3.93985092E-02  1.27551672E-01
 -8.36724975E-02 -6.00424912E-01  7.23575397E-07 -5.10843530E-02  1.61051259E-18
  5.88550843E-07 -5.96186208E-02  2.59169151E-18  7.90049735E-07  3.22567024E-02
  7.34481012E-19 -2.29808037E-07  8.23925692E-02 -4.51935482E-19  1.79847436E-03
  2.93319683E-18 -3.13831907E-19 -9.04812429E-04  2.32725631E-08  2.95403974E-03
  1.00767497E-17  9.61239461E-19 -2.17078617E-03  7.39410580E-08  1.41580981E-02
  4.51365846E-17 -5.07953320E-20 -1.32337279E-02  2.24321595E-07 -3.27854437E-19
  1.85139846E-08 -7.68088418E-04 -1.70144447E-19 -1.60416180E-18  1.20950269E-08
 -2.56564052E-04 -1.31919181E-02 -4.35634073E-02  2.05481250E-01 -6.25136835E-03
  3.20740611E-03  2.25504577E-18 -7.86457554E-02  8.15542566E-02 -1.92089006E-17
 -1.31914587E-02 -4.35620784E-02  2.05484114E-01  6.25128318E-03  3.20720201E-03
 -2.70250989E-18  7.86457854E-02  8.15531458E-02  1.07422522E-17  1.66388114E-21
  1.75775186E-20 -2.67500340E-19  6.00206917E-19 -4.86679052E-19 -1.52626706E-18
  1.96530590E-20 -7.11312519E-19  2.02581871E-09  6.14246113E-21 -8.07837664E-19
  1.38980277E-09 -2.65165372E-20  2.70086318E-19 -2.30471980E-09 -6.75522627E-21
  1.31445365E-18 -1.62180107E-09 -3.26761341E-20  2.85802625E-05 -6.93768440E-11
  4.95677619E-20 -5.59656534E-21 -2.31795780E-19  1.61172306E-05  1.47383135E-10
  2.46290120E-19  2.83812110E-20 -4.14480529E-19 -4.44897788E-05  6.92962019E-10
  1.07802721E-18  2.22859060E-20 -1.38578998E-10 -2.48949804E-21  3.01237530E-20
  2.64964127E-10 -1.93315682E-05 -4.69226623E-21 -8.36832491E-20  1.61353635E-19
 -8.86809645E-19  3.95243355E-19  9.99697796E-20  4.79578989E-20 -2.75195757E-05
 -1.51696052E-18  5.24924728E-19 -6.08817974E-05  2.04923694E-19 -8.87514441E-19
  2.79226746E-19 -1.21574602E-19  1.76225590E-20  2.75188168E-05  1.51971914E-18
  5.49879514E-19  6.08808611E-05 -2.69524261E-20 -6.52081008E-20  1.02052781E-19
 -1.15097505E-19  2.55527039E-18  2.82371253E-18 -1.29163340E-17 -2.30853042E-19
 -2.93153979E-04 -8.93108225E-18 -4.94480794E-20 -2.02681826E-04 -4.88125794E-17
 -6.85185976E-19  1.22106578E-04 -3.77669796E-17 -7.83999865E-19  2.19081864E-04
  1.89246190E-21  1.12696549E-09  6.67335858E-05  1.20706190E-20  6.72075389E-21
 -5.80400156E-20  3.38729616E-09  1.43257905E-05 -7.73069319E-20  1.24406628E-18
 -1.40647889E-19  2.12152806E-09 -2.96564433E-04 -9.79897238E-20  1.60297519E-17
  6.69523094E-05  3.05261254E-19 -2.35632826E-20  6.30757019E-05  9.54269054E-10
  1.22742278E-19 -2.43436072E-20  1.27099491E-18  1.48070351E-17  1.45673142E-16
  3.72571987E-19 -2.54774908E-19  7.64770114E-05 -2.18611384E-17  1.63855633E-17
  2.03758009E-04 -1.28888976E-18 -1.51089412E-17 -1.51398922E-16  4.05965761E-19
  1.87143630E-19  7.64747583E-05 -2.29795766E-17 -1.68439672E-17  2.03752225E-04
 -1.48487844E-03 -3.57816535E-03  5.27793650E-03  1.70871852E-02 -1.12090061E-02
 -8.04346312E-02  9.69322208E-08 -6.84340541E-03  2.15748853E-19  7.88439471E-08
 -7.98668023E-03  3.47190376E-19  1.05837312E-07  4.32119972E-03  9.83931681E-20
 -3.07857391E-08  1.10375432E-02 -6.05425642E-20  2.40928747E-04  3.92939401E-19
 -4.20418160E-20 -1.21211250E-04  3.11765883E-09  3.95731576E-04  1.34991009E-18
  1.28770376E-19 -2.90804697E-04  9.90535471E-09  1.89665914E-03  6.04662542E-18
 -6.80468734E-21 -1.77282788E-03  3.00507597E-08 -4.39203141E-20  2.48018611E-09
 -1.02895312E-04 -2.27930346E-20 -2.14898084E-19  1.62028425E-09 -3.43700511E-05
 -1.76722692E-03 -5.83587810E-03  2.75268534E-02 -8.37451108E-04  4.29673257E-04
  3.02092354E-19 -1.05356094E-02  1.09252405E-02 -2.57327903E-18 -1.76716537E-03
 -5.83570008E-03  2.75272372E-02  8.37439698E-04  4.29645915E-04 -3.62035921E-19
  1.05356134E-02  1.09250917E-02  1.43906270E-18 -3.70683079E-21 -8.73829614E-21
  1.44385433E-20 -3.14333043E-20  4.35718168E-19  5.33762295E-19 -2.15946172E-18
 -2.98627281E-20 -1.32032825E-04 -1.67782915E-18 -8.74613858E-21 -8.19780163E-05
 -8.22697834E-18 -1.34010458E-19  1.27818219E-04 -6.63528191E-18 -1.40505160E-19
  6.68285640E-05  4.10537894E-21  1.11400477E-10  3.62508271E-05  4.70347122E-21
  6.20516811E-20 -8.74345112E-21  2.79634413E-10  3.46971125E-05 -9.23220911E-21
  3.89161340E-19 -2.02365091E-20 -9.91282968E-11 -6.80082230E-05 -1.76968520E-20
  2.78296440E-18  1.26264388E-05  6.20931890E-20 -4.84644740E-21  1.41217662E-05
 -3.16734106E-12  2.81982838E-20 -5.04061023E-21  1.88896874E-19  2.67730554E-18
  2.44529523E-17  3.48402606E-20 -3.75420690E-20  2.79465183E-05 -3.33485679E-18
  2.32518841E-18  4.62924899E-05 -1.79913584E-19 -2.70902612E-18 -2.54973463E-17
  4.09256981E-20  2.07450826E-20  2.79462291E-05 -3.52774725E-18 -2.38019510E-18
  4.62915951E-05  1.64683328E-09  3.96843380E-09 -5.85359802E-09 -1.89508747E-08
  1.24315659E-08  8.92075904E-08 -1.07504563E-13  7.58981172E-09 -2.39280457E-25
 -8.74434113E-14  8.85778287E-09 -3.85058232E-25 -1.17380928E-13 -4.79251050E-09
 -1.09124855E-25  3.41435221E-14 -1.22414017E-08  6.71459071E-26 -2.67206708E-10
 -4.35797077E-25  4.66272929E-26  1.34431691E-10 -3.45770010E-15 -4.38893793E-10
 -1.49714401E-24 -1.42815287E-25  3.22522599E-10 -1.09857261E-14 -2.10352667E-09
 -6.70612740E-24  7.54687070E-27  1.96618920E-09 -3.33283789E-14  4.87106776E-26
 -2.75069859E-15  1.14118045E-10  2.52790579E-26  2.38336895E-25 -1.79700773E-15
  3.81187729E-11  1.95997735E-09  6.47239399E-09 -3.05291916E-08  9.28791421E-10
 -4.76537474E-10 -3.35041394E-25  1.16847223E-08 -1.21168502E-08  2.85394510E-24
  1.95990909E-09  6.47219655E-09 -3.05296172E-08 -9.28778766E-10 -4.76507149E-10
  4.01522972E-25 -1.16847267E-08 -1.21166852E-08 -1.59602045E-24  1.93495081E-04
  4.66272105E-04 -6.87769937E-04 -2.22663768E-03  1.46064989E-03  1.04814678E-02
 -1.26312750E-08  8.91766794E-04 -2.81143162E-20 -1.02741851E-08  1.04074738E-03
 -4.52425115E-20 -1.37917009E-08 -5.63097198E-04 -1.28216516E-20  4.01170152E-09
 -1.43830651E-03  7.88932485E-21 -3.13955178E-05 -5.12040847E-20  5.47848523E-21
  1.57950846E-05 -4.06263322E-10 -5.15679341E-05 -1.75907304E-19 -1.67801172E-20
  3.78948720E-05 -1.29077059E-09 -2.47154383E-04 -7.87938087E-19  8.86721427E-22
  2.31017883E-04 -3.91592607E-09  5.72327304E-21 -3.23194007E-10  1.34083277E-05
  2.97016912E-21  2.80034520E-20 -2.11139865E-10  4.47877458E-06  2.30288020E-04
  7.60475522E-04 -3.58703487E-03  1.09128576E-04 -5.59908876E-05 -3.93657709E-20
  1.37289931E-03 -1.42367229E-03  3.35324981E-19  2.30280000E-04  7.60452324E-04
 -3.58708487E-03 -1.09127089E-04 -5.59873246E-05  4.71770402E-20 -1.37289984E-03
 -1.42365290E-03 -1.87524815E-19 -3.41477726E-21 -8.29859361E-21  1.28302723E-20
 -1.09221998E-20  3.03371163E-19  3.22969002E-19 -1.54298874E-18 -2.96663800E-20
 -1.54546462E-05 -1.02471585E-18 -5.74440315E-21 -1.29215648E-05 -5.81729532E-18
 -7.73190202E-20 -1.06966289E-05 -4.43752315E-18 -9.14898869E-20  1.90750813E-05
 -6.70932131E-22 -1.64960135E-10  2.00243127E-06  8.07199566E-22 -1.38206907E-20
 -7.14877586E-21  2.92341653E-10 -5.87476810E-06 -1.01082498E-20  1.06318606E-19
 -1.75772958E-20  8.56527921E-10 -3.11087893E-05 -1.14141000E-20  1.89131248E-18
  7.66407040E-06  3.39206085E-20 -2.60439948E-21  6.69458437E-06  3.67909711E-10
  1.28742625E-20 -2.67766768E-21  1.57550399E-19  1.72230542E-18  1.73843009E-17
  5.08419544E-20 -3.15133281E-20  5.57134096E-06 -2.68764021E-18  2.05556175E-18
  2.14654331E-05 -1.62506017E-19 -1.76275237E-18 -1.80480935E-17  5.47304910E-20
  2.47284177E-20  5.57043737E-06 -2.81994658E-18 -2.11544462E-18  2.14633676E-05
 -2.68669106E-21 -2.83826396E-20  4.31935995E-19 -9.69161044E-19  7.85845456E-19
  2.46447971E-18 -3.17295914E-20  1.14856476E-18 -1.91197472E-09 -9.91233067E-21
  1.30442514E-18 -1.44204065E-09  4.28344790E-20 -4.36111067E-19  2.04920130E-09
  1.09257113E-20 -2.12246358E-18  2.08400214E-09  5.27624860E-20 -4.61488909E-05
 -2.86760420E-10 -8.00377014E-20  9.03593641E-21  3.74283416E-19 -2.60246846E-05
 -7.34680718E-10 -3.97687625E-19 -4.58306859E-20  6.69266656E-19  7.18381768E-05
 -7.35832665E-10 -1.74070335E-18 -3.59924401E-20  1.78753626E-10  4.01954487E-21
 -4.86411614E-20 -5.03910531E-10  3.12149138E-05  7.57649806E-21  1.35124364E-19
 -2.60539732E-19  1.43193389E-18 -6.38256123E-19 -1.61422097E-19 -7.74381899E-20
  4.44359306E-05  2.44945698E-18 -8.47601613E-19  9.83063091E-05 -3.30892818E-19
  1.43308820E-18 -4.50815485E-19  1.96308239E-19 -2.84552516E-20 -4.44352185E-05
 -2.45390543E-18 -8.87897792E-19 -9.83053086E-05 -7.84315507E-21 -1.81470581E-20
  3.07780881E-20 -7.81142022E-20  9.78893824E-19  1.23118372E-18 -4.81951045E-18
 -6.15980726E-20 -3.46181276E-04 -3.87234141E-18 -1.93959069E-20 -2.13225345E-04
 -1.84190274E-17 -3.11645004E-19  3.52184877E-04 -1.50232201E-17 -3.19860529E-19
  1.68094270E-04  1.14698992E-20 -3.27286228E-10  9.59196410E-05  1.21491532E-20
  1.73656308E-19 -1.88300865E-20  1.41563911E-10  9.77424541E-05 -1.83197025E-20
  9.84901144E-19 -4.31970950E-20  3.34501836E-10 -1.63448656E-04 -4.03903034E-20
  6.28153375E-18  2.91045608E-05  1.46035634E-19 -1.14087403E-20  3.37594165E-05
  2.55670012E-10  6.79022619E-20 -1.18429608E-20  4.08502507E-19  6.11025106E-18
  5.46876640E-17  5.93959283E-20 -7.95220177E-20  7.18569911E-05 -7.25100423E-18
  4.93739064E-18  1.10954737E-04 -3.80947331E-19 -6.16918718E-18 -5.70757086E-17
  7.34449252E-20  3.86397529E-20  7.18553639E-05 -7.68575645E-18 -5.04686829E-18
  1.10950496E-04  3.78312206E-09  9.11632624E-09 -1.34469445E-08 -4.35341410E-08
  2.85579189E-08  2.04928578E-07 -2.46960568E-13  1.74353922E-08 -5.49677486E-25
 -2.00875888E-13  2.03481884E-08 -8.84559662E-25 -2.69648653E-13 -1.10094036E-08
 -2.50682719E-25  7.84348441E-14 -2.81210718E-08  1.54248256E-25 -6.13829950E-10
 -1.00111745E-24  1.07112688E-25  3.08817841E-10 -7.94306361E-15 -1.00823126E-09
 -3.43925436E-24 -3.28076721E-25  7.40902175E-10 -2.52365210E-14 -4.83224272E-09
 -1.54053836E-23  1.73367476E-26  4.51674971E-09 -7.65622889E-14  1.11898661E-25
 -6.31893260E-15  2.62153126E-10  5.80713073E-26  5.47509924E-25 -4.12810432E-15
  8.75668303E-11  4.50247977E-09  1.48684489E-08 -7.01319675E-08  2.13362904E-09
 -1.09470670E-09 -7.69660477E-25  2.68422621E-08 -2.78349508E-08  6.55611153E-24
  4.50232298E-09  1.48679953E-08 -7.01329451E-08 -2.13359997E-09 -1.09463704E-09
  9.22382629E-25 -2.68422723E-08 -2.78345716E-08 -3.66639430E-24  7.85684513E-04
  1.89329242E-03 -2.79268178E-03 -9.04123626E-03  5.93095180E-03  4.25598772E-02
 -5.12891444E-08  3.62100863E-03 -1.14157852E-19 -4.17182084E-08  4.22594254E-03
 -1.83706689E-19 -5.60010402E-08 -2.28644958E-03 -5.20621663E-20  1.62894671E-08
 -5.84022673E-03  3.20345112E-20 -1.27481133E-04 -2.07913587E-19  2.22453252E-20
  6.41357563E-05 -1.64962747E-09 -2.09390993E-04 -7.14269548E-19 -6.81354696E-20
  1.53871684E-04 -5.24115886E-09 -1.00356748E-03 -3.19941338E-18  3.60052198E-21
  9.38045412E-04 -1.59005720E-08  2.32392832E-20 -1.31232548E-09  5.44443577E-05
  1.20603369E-20  1.13707689E-19 -8.57330951E-10  1.81860118E-05  9.35081810E-04
  3.08790196E-03 -1.45651131E-02  4.43115307E-04 -2.27350344E-04 -1.59844252E-19
  5.57464159E-03 -5.78080468E-03  1.36158316E-18  9.35049247E-04  3.08780776E-03
 -1.45653161E-02 -4.43109270E-04 -2.27335876E-04  1.91561820E-19 -5.57464372E-03
 -5.78072594E-03 -7.61442315E-19 -1.83582762E-20 -4.45349938E-20  6.93613956E-20
 -7.19980707E-20  1.70669551E-18  1.86454028E-18 -8.64540435E-18 -1.58030969E-19
 -1.62204163E-04 -5.90036068E-18 -3.29474251E-20 -1.15896847E-04 -3.26426303E-17
 -4.50584780E-19  3.76847886E-05 -2.51451421E-17 -5.20859977E-19  1.34236208E-04
 -2.78866044E-22  3.44241192E-10  3.44660651E-05  6.98023025E-21 -2.00845393E-20
 -3.92503315E-20  2.13664394E-09 -3.68401301E-06 -5.32610352E-20  7.57901146E-19
 -9.54670537E-20  2.29124373E-09 -1.90918654E-04 -6.50580480E-20  1.06861921E-17
  4.42215740E-05  1.99707034E-19 -1.53964890E-20  4.07503751E-05  1.00318103E-09
  7.89810478E-20 -1.58962080E-20  8.60166641E-19  9.82686130E-18  9.74569233E-17
  2.60813755E-19 -1.72765169E-19  4.49665252E-05 -1.47626366E-17  1.11364969E-17
  1.31367186E-04 -8.77068448E-19 -1.00366228E-17 -1.01253283E-16  2.82941191E-19
  1.29743358E-19  4.49641335E-05 -1.55088021E-17 -1.14521879E-17  1.31361409E-04
 -6.14530649E-21 -6.49201891E-20  9.87976972E-19 -2.21678476E-18  1.79748386E-18
  5.63706483E-18 -7.25820583E-20  2.62713864E-18 -8.36624569E-09 -2.26857569E-20
  2.98364129E-18 -5.63300988E-09  9.79494022E-20 -9.97528020E-19  9.73232940E-09
  2.49572808E-20 -4.85476011E-18  6.27640652E-09  1.20685012E-19 -1.05557409E-04
  5.33029433E-10 -1.83071928E-19  2.06708978E-20  8.56107003E-19 -5.95268541E-05
 -1.71542371E-10 -9.09639831E-19 -1.04820514E-19  1.53082895E-18  1.64317098E-04
 -2.68429161E-09 -3.98155054E-18 -8.23137179E-20  5.08161169E-10  9.19466491E-21
 -1.11258091E-19 -9.55915663E-10  7.13985835E-05  1.73303148E-20  3.09072979E-19
 -5.95938924E-19  3.27531165E-18 -1.45982213E-18 -3.69225552E-19 -1.77126010E-19
  1.01640058E-04  5.60270294E-18 -1.93874971E-18  2.24858927E-04 -7.56857673E-19
  3.27791938E-18 -1.03124302E-18  4.49019237E-19 -6.50867589E-20 -1.01636946E-04
 -5.61287043E-18 -2.03089683E-18 -2.24855306E-04 -8.62314196E-21 -2.10133802E-20
  3.24821043E-20 -2.95767315E-20  7.79849838E-19  8.37502947E-19 -3.96338680E-18
 -7.47822594E-20 -5.15490431E-05 -2.65170199E-18 -1.50592147E-20 -3.98357464E-05
 -1.49432485E-17 -2.01124545E-19 -1.22888170E-05 -1.14363593E-17 -2.36099502E-19
  5.32011675E-05 -1.16092185E-21  4.97588920E-10  9.01131119E-06  2.46523015E-21
 -2.54465264E-20 -1.82762280E-20  1.23927048E-09 -1.06148137E-05 -2.54284756E-20
  2.96915918E-19 -4.46569223E-20  6.76220442E-10 -8.24167340E-05 -2.94407657E-20
  4.86941088E-18  1.98723643E-05  8.84017314E-20 -6.80325314E-21  1.76944241E-05
  2.87862201E-10  3.40592077E-20 -7.02307707E-21  4.00521143E-19  4.44769590E-18
  4.46410642E-17  1.27363867E-19 -8.08057912E-20  1.64333721E-05 -6.85441967E-18
  5.21827490E-18  5.68537603E-05 -4.11571758E-19 -4.54906780E-18 -4.63569287E-17
  1.37338502E-19  6.25896737E-20  1.64328689E-05 -7.19473254E-18 -5.36891001E-18
  5.68524569E-05  4.12608867E-09  9.94278531E-09 -1.46660046E-08 -4.74808170E-08
  3.11468951E-08  2.23506795E-07 -2.69349280E-13  1.90160331E-08 -5.99509614E-25
 -2.19086700E-13  2.21928947E-08 -9.64751214E-25 -2.94094200E-13 -1.20074834E-08
 -2.73408870E-25  8.55455142E-14 -3.06704447E-08  1.68231945E-25 -6.69477951E-10
 -1.09187579E-24  1.16823207E-25  3.36814349E-10 -8.66315818E-15 -1.09963451E-09
 -3.75104695E-24 -3.57819182E-25  8.08070166E-10 -2.75243891E-14 -5.27031950E-09
 -1.68019900E-23  1.89084457E-26  4.92622483E-09 -8.35031987E-14  1.22043061E-25
 -6.89178827E-15  2.85919150E-10  6.33358796E-26  5.97145548E-25 -4.50234601E-15
  9.55053792E-11  4.91066122E-09  1.62163783E-08 -7.64899234E-08  2.32705751E-09
 -1.19394956E-09 -8.39435610E-25  2.92757019E-08 -3.03583848E-08  7.15046914E-24
  4.91049021E-09  1.62158837E-08 -7.64909897E-08 -2.32702581E-09 -1.19387358E-09
  1.00600310E-24 -2.92757130E-08 -3.03579713E-08 -3.99877873E-24  9.78345394E-04
  2.35755433E-03 -3.47748659E-03 -1.12582744E-02  7.38530451E-03  5.29961570E-02
 -6.38659632E-08  4.50893082E-03 -1.42150961E-19 -5.19480992E-08  5.26220302E-03
 -2.28754150E-19 -6.97332821E-08 -2.84711915E-03 -6.48285410E-20  2.02838733E-08
 -7.27233238E-03  3.98898235E-20 -1.58741297E-04 -2.58896919E-19  2.77001915E-20
  7.98627448E-05 -2.05413930E-09 -2.60736606E-04 -8.89418476E-19 -8.48432441E-20
  1.91603183E-04 -6.52636465E-09 -1.24965632E-03 -3.98395449E-18  4.48342055E-21
  1.16806733E-03 -1.97996156E-08  2.89378820E-20 -1.63412613E-09  6.77948792E-05
  1.50177010E-20  1.41590412E-19 -1.06756055E-09  2.26454774E-05  1.16437701E-03
  3.84509890E-03 -1.81366835E-02  5.51773406E-04 -2.83099842E-04 -1.99040309E-19
  6.94162203E-03 -7.19833921E-03  1.69546248E-18  1.16433646E-03  3.84498161E-03
 -1.81369363E-02 -5.51765888E-04 -2.83081827E-04  2.38535469E-19 -6.94162469E-03
 -7.19824116E-03 -9.48158669E-19 -2.55323962E-20 -6.14625837E-20  9.68698787E-20
 -1.19264698E-19  2.47064225E-18  2.76446346E-18 -1.24551517E-17 -2.17292070E-19
 -3.36601778E-04 -8.74435271E-18 -4.76149250E-20 -2.27074195E-04 -4.71283847E-17
 -6.73805116E-19  1.87758044E-04 -3.66412374E-17 -7.62509020E-19  2.31065449E-04
  4.24474920E-21  9.84725229E-10  8.01321555E-05  1.33711248E-20  4.36024350E-20
 -5.52660187E-20  3.04451203E-09  3.50367060E-05 -7.21505851E-20  1.32098186E-18
 -1.33565635E-19  1.84609237E-09 -2.98159937E-04 -9.54011660E-20  1.55304030E-17
  6.55254676E-05  3.02095229E-19 -2.33380426E-20  6.31678371E-05  8.55700026E-10
  1.23536521E-19 -2.40977324E-20  1.21174145E-18  1.44184886E-17  1.40584247E-16
  3.40208901E-19 -2.41346466E-19  8.36652930E-05 -2.08790756E-17  1.55361634E-17
  2.04471043E-04 -1.22114396E-18 -1.46972564E-17 -1.46165034E-16  3.72877870E-19
  1.72576509E-19  8.36630593E-05 -2.19619187E-17 -1.59642599E-17  2.04465255E-04
 -1.13149230E-21 -1.19546721E-20  1.81935674E-19 -4.08220894E-19  3.30990903E-19
  1.03804908E-18 -1.32834606E-20  4.83789944E-19  8.22648922E-10 -4.11931408E-21
  5.49438924E-19  5.45179714E-10  1.83499169E-20 -1.83690643E-19  3.76030275E-10
  4.83928734E-21 -8.94000737E-19 -4.24211902E-10  2.22241540E-20 -1.94384346E-05
 -4.71889355E-10 -3.37128537E-20  3.80617213E-21  1.57652775E-19 -1.09618914E-05
 -3.15803327E-10 -1.67510027E-19 -1.93117867E-20  2.81903578E-19  3.02590523E-05
  1.51167872E-09 -7.33203318E-19 -1.52612111E-20 -3.43069826E-10  1.69117981E-21
 -2.04880609E-20 -6.00447154E-10  1.31480746E-05  3.19055224E-21  5.69160607E-20
 -1.09750362E-19  6.03053905E-19 -2.69758801E-19 -6.79952257E-20 -3.26162285E-20
  1.87164741E-05  1.03187763E-18 -3.57123773E-19  4.14064768E-05 -1.39367571E-19
  6.03727745E-19 -1.88934602E-19  8.26846265E-20 -1.19868747E-20 -1.87170588E-05
 -1.03346702E-18 -3.73885252E-19 -4.14085595E-05  1.98137694E-04  4.77459578E-04
 -7.04271906E-04 -2.28006239E-03  1.49569591E-03  1.07329542E-02 -1.29343428E-08
  9.13163349E-04 -2.87888754E-20 -1.05206982E-08  1.06571849E-03 -4.63280351E-20
 -1.41226113E-08 -5.76607839E-04 -1.31292872E-20  4.10795605E-09 -1.47281643E-03
  8.07861691E-21 -3.21488043E-05 -5.24326469E-20  5.60993295E-21  1.61740631E-05
 -4.16010978E-10 -5.28052263E-05 -1.80127925E-19 -1.71827300E-20  3.88041005E-05
 -1.32174061E-09 -2.53084467E-04 -8.06843434E-19  9.07996926E-22  2.36560798E-04
 -4.00988262E-09  5.86059406E-21 -3.30948543E-10  1.37300396E-05  3.04143370E-21
  2.86753513E-20 -2.16205837E-10  4.58623580E-06  2.35813422E-04  7.78721948E-04
 -3.67310018E-03  1.11746946E-04 -5.73343017E-05 -4.03102913E-20  1.40583989E-03
 -1.45783109E-03  3.43370581E-19  2.35805210E-04  7.78698193E-04 -3.67315138E-03
 -1.11745424E-04 -5.73306532E-05  4.83089798E-20 -1.40584043E-03 -1.45781123E-03
 -1.92024180E-19 -1.21595532E-21 -1.28454455E-20  1.95485647E-19 -4.38622992E-19
  3.55659244E-19  1.11537576E-18 -1.43666741E-20  5.19817350E-19 -1.11421117E-09
 -4.49085358E-21  5.90356721E-19 -8.13794948E-10  1.93613840E-20 -1.97375522E-19
  1.12040323E-09  4.92535807E-21 -9.60585000E-19  1.09048018E-09  2.38792522E-20
 -2.08860657E-05 -6.61408655E-11 -3.62234546E-20  4.08955928E-21  1.69393166E-19
 -1.17782521E-05 -2.85537243E-10 -1.79985505E-19 -2.07412012E-20  3.02896645E-19
  3.25125230E-05 -5.04926373E-10 -7.87807597E-19 -1.62812653E-20  1.16357685E-10
  1.81933332E-21 -2.20140305E-20 -1.91945117E-10  1.41272461E-05  3.42904292E-21
  6.11545730E-20 -1.17914464E-19  6.48072363E-19 -2.88788535E-19 -7.30562626E-20
 -3.50470978E-20  2.01108712E-05  1.10856466E-18 -3.83599811E-19  4.44915882E-05
 -1.49756082E-19  6.48579247E-19 -2.04106498E-19  8.88453553E-20 -1.28781981E-20
 -2.01104347E-05 -1.11059973E-18 -4.01852738E-19 -4.44909005E-05  2.91938546E-21
  6.87559131E-21 -1.12982321E-20  2.25532748E-20 -3.29959655E-19 -3.98406238E-19
  1.63880030E-18  2.37433513E-20  9.07198864E-05  1.25520631E-18  6.48675514E-21
  5.68189820E-05  6.23971006E-18  9.95893908E-20 -8.48017181E-05  5.00229248E-18
  1.05649704E-19 -4.73148911E-05 -2.67308853E-21  3.38680937E-11 -2.45193584E-05
 -3.25957946E-21 -3.95353454E-20  6.72491887E-21 -1.71657573E-10 -2.27033064E-05
  7.42932910E-21 -2.75548394E-19  1.57467491E-20 -1.78052184E-10  4.95606049E-05
  1.32982027E-20 -2.10171437E-18 -9.42666522E-06 -4.59950027E-20  3.58114430E-21
 -1.03139328E-05 -1.03683253E-10 -2.05697445E-20  3.71240551E-21 -1.46402030E-19
 -2.01099353E-18 -1.85578990E-17 -2.92715104E-20  2.88105320E-20 -1.94955801E-05
  2.56889370E-18 -1.81301824E-18 -3.37471321E-05  1.40934645E-19  2.03715639E-18
  1.93412436E-17 -3.38678206E-20 -1.66928163E-20 -1.94951013E-05  2.71473957E-18
  1.85726337E-18 -3.37458940E-05 -5.66885384E-05 -1.36604424E-04  2.01496970E-04
  6.52341316E-04 -4.27928747E-04 -3.07077102E-03  3.70060321E-09 -2.61262229E-04
  8.23669254E-21  3.01004312E-09 -3.04909289E-04  1.32547651E-20  4.04057490E-09
  1.64971414E-04  3.75637813E-21 -1.17531409E-09  4.21382772E-04 -2.31134710E-21
  9.19799101E-06  1.50013360E-20 -1.60503987E-21 -4.62750917E-06  1.19023563E-10
  1.51079335E-05  5.15358214E-20  4.91609562E-21 -1.11021164E-05  3.78158956E-10
  7.24091829E-05  2.30843380E-19 -2.59784080E-22 -6.76816490E-05  1.14725462E-09
 -1.67675572E-21  9.46866234E-11 -3.92825748E-06 -8.70174813E-22 -8.20421252E-21
  6.18579567E-11 -1.31215318E-06 -6.74678198E-05 -2.22797632E-04  1.05089888E-03
 -3.19715594E-05  1.64037327E-05  1.15330478E-20 -4.02220330E-04  4.17095365E-04
 -9.82406527E-20 -6.74654703E-05 -2.22790836E-04  1.05091353E-03  3.19711238E-05
  1.64026888E-05 -1.38215268E-20  4.02220484E-04  4.17089684E-04  5.49394207E-20
 -1.79000406E-10 -4.31343761E-10  6.36249239E-10  2.05984073E-09 -1.35123292E-09
 -9.69630325E-09  1.16850689E-14 -8.24964734E-10  2.60082788E-26  9.50454810E-15
 -9.62785213E-10  4.18534047E-26  1.27585676E-14  5.20915708E-10  1.18611844E-26
 -3.71118582E-15  1.33056327E-09 -7.29833722E-27  2.90436863E-11  4.73683976E-26
 -5.06809308E-27 -1.46118782E-11  3.75830224E-16  4.77049912E-11  1.62730125E-25
  1.55231222E-26 -3.50561753E-11  1.19407924E-15  2.28640101E-10  7.28913813E-25
 -8.20297315E-28 -2.13712383E-10  3.62258489E-15 -5.29454388E-27  2.98983613E-16
 -1.24039128E-11 -2.74767438E-27 -2.59057195E-26  1.95323423E-16 -4.14327054E-12
 -2.13037194E-10 -7.03508464E-10  3.31833085E-09 -1.00953778E-10  5.17966222E-11
  3.64168894E-26 -1.27005572E-09  1.31702531E-09 -3.10205858E-25 -2.13029775E-10
 -7.03487004E-10  3.31837711E-09  1.00952403E-10  5.17933261E-11 -4.36430183E-26
  1.27005620E-09  1.31700737E-09  1.73477371E-25  5.49638067E-23  5.80581059E-22
 -8.83516115E-21  1.98238604E-20 -1.60745254E-20 -5.04102287E-20  6.50683318E-22
 -2.34934934E-20 -4.42263044E-10  2.02711662E-22 -2.66816533E-20 -2.46345144E-10
 -8.70343699E-22  8.92049726E-21  6.14752038E-10 -2.20670725E-22  4.34144502E-20
  1.18598851E-10 -1.07921883E-21  9.43962883E-07  1.52592250E-10  1.63716439E-21
 -1.84455032E-22 -7.65585073E-21  5.32327772E-07  2.15920351E-10  8.13462415E-21
  9.38438077E-22 -1.36896272E-20 -1.46943017E-06 -6.26499768E-11  3.56056130E-20
  7.34814107E-22 -3.21619922E-12 -8.21871502E-23  9.94938874E-22  2.46142392E-11
 -6.38492488E-07 -1.54942397E-22 -2.76393465E-21  5.32896190E-21 -2.92904314E-20
  1.30373589E-20  3.30162123E-21  1.58404455E-21 -9.08839577E-07 -5.00981727E-20
  1.73327721E-20 -2.01077818E-06  6.76870585E-21 -2.93126517E-20  9.23948541E-21
 -4.01565523E-21  5.81951127E-22  9.08995363E-07  5.01988639E-20  1.81665854E-20
  2.01085844E-06 -6.18547971E-22 -1.22000871E-21  2.70181968E-21 -1.75231647E-20
  1.37125589E-19  2.01378616E-19 -6.50253403E-19 -3.43851028E-21 -9.37412295E-05
 -6.29699868E-19 -2.80649818E-21 -5.60995821E-05 -2.52593249E-18 -5.31661366E-20
  1.08420971E-04 -2.21190331E-18 -4.85801089E-20  3.98305704E-05  3.68539173E-21
 -1.18162064E-10  2.70475448E-05  3.15784280E-21  5.74229040E-20 -1.97969350E-21
 -1.61804859E-10  3.15402470E-05 -3.80310227E-22  2.36311531E-19 -3.98541742E-21
 -1.61668003E-10 -3.25384821E-05 -6.20689686E-21  9.07164167E-19  4.74567110E-06
  2.60860705E-20 -2.05892821E-21  6.58559404E-06 -3.58529168E-11  1.35518372E-20
 -2.14620126E-21  4.20577730E-20  9.40653741E-19  7.44453848E-18 -7.80213394E-21
 -7.64108463E-21  1.82997073E-05 -7.98343986E-19  4.32457220E-19  2.19072380E-05
 -3.15395189E-20 -9.37940709E-19 -7.81670434E-18 -5.59155203E-21 -9.82494396E-22
  1.82994750E-05 -8.60454938E-19 -4.34996264E-19  2.19065696E-05  9.53695317E-20
  4.99644218E-19 -5.65944442E-18  1.27657979E-17 -1.75675450E-17 -4.05950253E-17
  3.84083144E-17 -1.39189167E-17  2.71137580E-03  3.05498802E-17 -1.62042161E-17
  1.66836849E-03  1.44620838E-16  7.92022200E-18 -2.75162012E-03  1.18190122E-16
  2.91369521E-17 -1.31772428E-03 -7.51555660E-19  5.78774267E-04 -7.53836897E-04
  9.08505235E-19 -1.48356129E-18 -4.54484964E-18  3.26384763E-04 -7.62054454E-04
  5.13287462E-18 -7.12980164E-18 -8.05252029E-18 -9.00953974E-04  1.28360062E-03
  2.21487815E-17 -4.90298186E-17 -2.29019727E-04 -1.19636101E-18  6.99639260E-19
 -2.65302806E-04 -3.91480741E-04 -6.27667109E-19 -1.60142615E-18  4.90239840E-20
 -6.60484840E-17 -4.22992944E-16  1.54244137E-18  1.60573957E-18 -1.12012088E-03
  2.65025104E-17 -2.83763890E-17 -2.10490433E-03  7.15423188E-18  3.05872256E-17
  4.55448483E-16 -3.05384840E-18  4.35618234E-20 -5.53949486E-06  9.14220095E-17
  5.10096964E-17  3.60913878E-04  1.42477935E-19  6.79127958E-19 -7.07807644E-18
  1.57134265E-17 -2.31964534E-17 -5.12676857E-17  5.54587255E-17 -1.69570504E-17
  2.70159824E-03  4.14286889E-17 -1.99834821E-17  1.70592914E-03  2.08266295E-16
  1.00118084E-17 -2.40143386E-03  1.66216097E-16  3.63726052E-17 -1.46182507E-03
 -8.91418707E-19  7.14691536E-04 -7.22060924E-04  1.14115566E-18 -1.22889535E-18
 -5.56645473E-18  4.03027646E-04 -6.27357853E-04  6.42320057E-18 -7.76759376E-18
 -9.82342130E-18 -1.11253890E-03  1.58539476E-03  2.73979618E-17 -6.94798588E-17
 -3.10112945E-04 -1.55650334E-18  8.69527373E-19 -3.31113429E-04 -4.83417880E-04
 -7.74664727E-19 -1.97205483E-18 -9.64689288E-19 -8.87477840E-17 -6.11900543E-16
  1.39850056E-18  2.19210590E-18 -1.27934452E-03  4.95109950E-17 -4.93617386E-17
 -2.60382877E-03  9.99025247E-18  4.53338443E-17  6.54667108E-16 -4.29286717E-18
 -1.68233991E-19  9.69862482E-05  1.30312395E-16  7.78111536E-17  4.41063891E-04
  4.68318920E-20  1.52985893E-19 -9.79277298E-19  2.05463296E-18 -5.58805788E-18
 -9.32368637E-18  2.06156846E-17 -1.83138165E-18  6.44224347E-04  1.47354542E-17
 -2.40309034E-18  4.29002278E-04  7.78809634E-17  1.96499899E-18 -4.26518107E-04
  6.08955688E-17  5.30559832E-18 -4.15003387E-04 -1.11051968E-19  8.77189328E-05
 -1.55354545E-04  1.27289257E-19 -1.36642282E-19 -6.21819808E-19  4.94634224E-05
 -9.40995599E-05  8.71069417E-19 -2.31304075E-18 -1.05472587E-18 -1.36553703E-04
  5.13328899E-04  3.46799806E-18 -2.57162993E-17 -1.09910465E-04 -5.21995258E-19
  1.32137541E-19 -1.08226367E-04 -5.93350388E-05 -2.27858205E-19 -2.16088914E-19
 -1.48980198E-18 -2.67986467E-17 -2.31255439E-16 -2.16423105E-19  5.32549007E-19
 -2.39269254E-04  2.95055872E-17 -2.36201135E-17 -5.37721391E-04  2.61617145E-18
  2.17915310E-17  2.42649588E-16 -9.51867560E-19 -2.11989629E-19 -7.03379742E-05
  4.06229547E-17  2.76031397E-17 -1.63989466E-04 -1.28788193E-20 -4.47962739E-20
  3.27953747E-19 -7.40102937E-19  1.86538971E-18  3.29467295E-18 -6.68494291E-18
  6.67839195E-19 -4.40630726E-04 -5.25599590E-18  8.31848695E-19 -2.72135888E-04
 -2.53837855E-17 -7.08475113E-19  4.37324866E-04 -2.05950354E-17 -1.83515467E-18
  2.18269717E-04  4.89396415E-20 -3.03933422E-05  1.21984797E-04 -3.71227109E-20
  2.22204611E-19  2.19891544E-19 -1.71391054E-05  1.19942064E-04 -2.88931388E-19
  1.24253956E-18  3.79651438E-19  4.73121269E-05 -2.17199290E-04 -1.20155503E-18
  8.60457354E-18  3.95319919E-05  1.98590807E-19 -4.73489656E-20  4.50046517E-05
  2.05580635E-05  9.50449782E-20  7.30486140E-20  4.01662591E-19  9.28425283E-18
  7.50718171E-17 -9.55794646E-21 -1.65012656E-19  1.21554243E-04 -8.54908102E-18
  6.45087855E-18  2.12480220E-04 -7.58684999E-19 -7.48777287E-18 -7.90463809E-17
  2.44999688E-19  4.12401462E-20  6.30228576E-05 -1.23759636E-17 -7.75496376E-18
  8.29891001E-05 -6.19325482E-21  1.60769853E-20 -5.83647204E-19  1.38123522E-18
 -3.46091808E-19 -2.78074510E-18 -3.99844803E-18 -1.74083255E-18  7.35991786E-05
 -2.41904359E-18 -1.88943747E-18  3.21874128E-05 -1.52192237E-17  4.50941157E-19
 -1.75621289E-04 -1.12064368E-17  2.82412397E-18  8.50607534E-06 -8.28154476E-20
  6.63376907E-05 -2.92974303E-05  1.13475906E-19 -1.33224680E-19 -5.58071510E-19
  3.74110722E-05 -5.97638678E-05  5.40099044E-19  9.59544885E-20 -1.01263815E-18
 -1.03262931E-04 -5.62329100E-05  2.47410725E-18  4.86788874E-18  1.81212458E-05
  6.79909327E-20  6.43381008E-20  1.26340847E-05 -4.48695646E-05  1.23215412E-20
 -1.99921476E-19  8.20044834E-19  2.17941860E-18  4.63510997E-17  4.02881026E-19
  2.18943108E-20 -7.01015128E-05 -1.10057601E-17  7.17579862E-18 -1.01852276E-04
  6.88543877E-22 -6.42958956E-18 -4.64059355E-17 -1.01831558E-19  1.20088844E-19
  5.76463220E-05 -4.29599627E-18 -4.86774900E-18  1.80767089E-04 -9.22595454E-04
 -2.22321168E-03  3.27932583E-03  1.06167340E-02 -6.96446103E-03 -4.99762291E-02
  6.02266313E-08 -4.25199434E-03  1.34050644E-19  4.89878937E-08 -4.96234215E-03
  2.15718845E-19  6.57596075E-08  2.68487918E-03  6.11343576E-20 -1.91280190E-08
  6.85792649E-03 -3.76167456E-20  1.49695599E-04  2.44143962E-19 -2.61217264E-20
 -7.53118539E-05  1.93708642E-09  2.45878816E-04  8.38735939E-19  8.00085448E-20
 -1.80684886E-04  6.15446691E-09  1.17844603E-03  3.75693321E-18 -4.22793775E-21
 -1.10150629E-03  1.86713562E-08 -2.72888885E-20  1.54100724E-09 -6.39316623E-05
 -1.41619338E-20 -1.33522038E-19  1.00672678E-09 -2.13550497E-05 -1.09802626E-03
 -3.62599016E-03  1.71031844E-02 -5.20331203E-04  2.66967708E-04  1.87698215E-19
 -6.54606131E-03  6.78814974E-03 -1.59884841E-18 -1.09798802E-03 -3.62587955E-03
  1.71034229E-02  5.20324114E-04  2.66950719E-04 -2.24942787E-19  6.54606381E-03
  6.78805728E-03  8.94128887E-19  2.86512537E-21  2.08382334E-20 -2.73024730E-19
  6.04515983E-19 -5.94512162E-19 -1.63910737E-18  5.72692892E-19 -7.03002471E-19
 -2.26369977E-06  3.35380573E-19 -8.08076972E-19 -5.59698320E-07  2.02534860E-18
  2.96175086E-19  1.43696240E-05  1.52932443E-18  1.35042180E-18 -3.67250054E-06
 -3.22652854E-20  2.86825430E-05  7.72128124E-07  4.96873603E-20  9.35665583E-22
 -2.29841561E-19  1.61747379E-05  5.55559934E-06  2.51138187E-19  1.36264359E-20
 -4.09472592E-19 -4.46492400E-05  9.04878851E-06  1.08575765E-18 -6.35415869E-19
 -2.55596150E-06 -1.26822458E-20  3.10339259E-20 -2.02591035E-06 -1.94008522E-05
 -8.27862984E-21 -8.31026076E-20  1.05703497E-19 -1.47284118E-18 -5.74200372E-18
  7.74437389E-20  6.16702378E-20 -2.80655217E-05 -5.39847620E-19 -2.40875696E-19
 -6.75617208E-05  2.64916051E-19 -2.91274367E-19  6.64373024E-18 -1.46001650E-19
  6.08020879E-21  2.71700395E-05  2.55370775E-18  1.34283793E-18  5.46371564E-05
  4.15756917E-21  5.04163626E-21  7.44847514E-20 -1.84641717E-19 -2.82994966E-19
  2.07083848E-20  2.25639477E-18  2.85446014E-19  6.26482580E-05  1.61137337E-18
  2.86821909E-19  4.28126612E-05  8.60126419E-18  3.03458252E-20 -3.64944286E-05
  6.69075966E-18 -3.14295403E-19 -4.28622188E-05  1.05097033E-20 -9.86437727E-06
 -1.41143107E-05 -1.95640335E-20 -2.82870586E-21  8.98919506E-20 -5.56324249E-06
 -7.37083484E-06 -7.19579077E-20 -2.59473054E-19  1.67385424E-19  1.53548628E-05
  5.48867205E-05 -3.54616738E-19 -2.84215727E-18 -1.19897908E-05 -5.51926391E-20
 -6.09295918E-21 -1.15800371E-05  6.67193979E-06 -2.12976321E-20  3.32665912E-20
 -2.77975697E-19 -2.33334155E-18 -2.57679145E-17 -9.36843616E-20  2.53856106E-20
 -6.10354033E-06  4.32274978E-18 -3.00494249E-18 -1.64434329E-05  1.52918385E-19
  2.99574442E-18  2.65557522E-17 -2.34105882E-20 -3.54463949E-20 -2.50990712E-05
  3.47240677E-18  2.71157084E-18 -5.84675176E-05 -1.40129989E-04 -3.37676309E-04
  4.98086014E-04  1.61254080E-03 -1.05780908E-03 -7.59072505E-03  9.14762492E-09
 -6.45821434E-04  2.03605114E-20  7.44061004E-09 -7.53713827E-04  3.27648259E-20
  9.98801048E-09  4.07797468E-04  9.28549649E-21 -2.90529189E-09  1.04162790E-03
 -5.71348376E-21  2.27367721E-05  3.70822233E-20 -3.96754310E-21 -1.14388698E-05
  2.94217685E-10  3.73457247E-05  1.27392843E-19  1.21522347E-20 -2.74436330E-05
  9.34781735E-10  1.78990291E-04  5.70628228E-19 -6.42167558E-22 -1.67304167E-04
  2.83593088E-09 -4.14481951E-21  2.34058521E-10 -9.71036990E-06 -2.15100954E-21
 -2.02802231E-20  1.52908419E-10 -3.24354825E-06 -1.66775597E-04 -5.50739718E-04
  2.59774643E-03 -7.90313949E-05  4.05488471E-05  2.85088644E-20 -9.94259721E-04
  1.03102974E-03 -2.42843826E-19 -1.66769789E-04 -5.50722918E-04  2.59778264E-03
  7.90303181E-05  4.05462667E-05 -3.41658200E-20  9.94260101E-04  1.03101569E-03
  1.35806296E-19  2.79784272E-20 -2.12276630E-19  5.17475378E-18 -1.15435477E-17
  2.14383491E-18  2.12213351E-17  3.76118346E-17  1.48903720E-17  2.71130462E-03
  3.03008069E-17  1.65145054E-17  1.66831730E-03  1.45692934E-16 -3.01872905E-18
 -2.75155082E-03  1.18462348E-16 -2.41005603E-17 -1.31765824E-03  5.71879339E-19
 -5.78772282E-04 -7.53838127E-04 -1.09906901E-18 -1.25690700E-18  4.84324936E-18
 -3.26388973E-04 -7.62068552E-04 -4.84227493E-18 -8.27928729E-18  8.73460079E-18
  9.00953550E-04  1.28356605E-03 -2.15130561E-17 -4.99318426E-17 -2.29011915E-04
 -1.09552360E-18 -5.20421802E-19 -2.65312059E-04  3.91478831E-04 -4.37620130E-19
  1.78787921E-18 -6.48600230E-18 -3.01307517E-17 -4.38995338E-16 -2.50647336E-18
 -3.36643772E-19 -5.53495843E-06  8.79409193E-17 -4.96359405E-17  3.60910881E-04
 -1.14556606E-18  6.65324529E-17  4.44133557E-16  1.87014140E-18 -6.70169891E-19
 -1.12009690E-03  2.98699716E-17  2.87379257E-17 -2.10485421E-03  5.92604045E-20
 -1.99980845E-19  6.30042184E-18 -1.43047203E-17  1.14398481E-18  2.50656639E-17
  5.44749769E-17  1.86177976E-17  2.70149060E-03  4.11209360E-17  2.04188899E-17
  1.70585391E-03  2.09589304E-16 -3.49605685E-18 -2.40132720E-03  1.66551541E-16
 -2.93671986E-17 -1.46173439E-03  7.42811942E-19 -7.14692783E-04 -7.22056857E-04
 -1.33787584E-18 -9.49002789E-19  6.02634084E-18 -4.03043214E-04 -6.27369306E-04
 -5.89450980E-18 -9.18697060E-18  1.09059787E-17  1.11252787E-03  1.58534368E-03
 -2.65174062E-17 -7.05934177E-17 -3.10101885E-04 -1.43197806E-18 -6.37052910E-19
 -3.31123131E-04  4.83411604E-04 -5.39983708E-19  2.21319305E-18 -9.03438068E-18
 -4.43948536E-17 -6.31658392E-16 -3.60125809E-18 -2.06429494E-19  9.69943165E-05
  1.25377253E-16 -7.56136639E-17  4.41063195E-04 -2.58682762E-19  8.97201402E-17
  6.40692333E-16  1.78747268E-18 -1.04957680E-18 -1.27930937E-03  5.43051585E-17
  5.03088743E-17 -2.60375850E-03  3.66174240E-20  4.50844498E-20  6.62777277E-19
 -1.62974243E-18 -2.60050741E-18  4.53859211E-20  2.04946930E-17  2.53500658E-18
  6.44204186E-04  1.46975079E-17  2.55582271E-18  4.28988428E-04  7.80424099E-17
  3.07054619E-19 -4.26500992E-04  6.09360114E-17 -2.76320142E-18 -4.14987588E-04
  8.95306451E-20 -8.77211123E-05 -1.55352313E-04 -1.76982308E-19 -1.02287431E-19
  8.01057837E-19 -4.94722564E-05 -9.41002026E-05 -6.40785493E-19 -2.48722609E-18
  1.48956054E-18  1.36546966E-04  5.13316662E-04 -3.14947856E-18 -2.58526665E-17
 -1.09907802E-04 -5.06705267E-19 -5.27778613E-20 -1.08226291E-04  5.93318628E-05
 -1.99051420E-19  2.97600355E-19 -2.48023740E-18 -2.13545615E-17 -2.33677686E-16
 -8.30077588E-19  2.38152191E-19 -7.03382126E-05  3.88168602E-17 -2.68419196E-17
 -1.63992757E-04  1.35821162E-18  2.72391323E-17  2.40931443E-16 -2.05570164E-19
 -3.20160517E-19 -2.39260306E-04  3.12935282E-17  2.42272435E-17 -5.37701354E-04
  9.33983603E-21  7.41074037E-21  2.40987451E-19 -5.36464035E-19 -8.30276502E-19
 -4.84843349E-20  6.64311116E-18  8.45035276E-19  4.40630277E-04  5.24291993E-18
  8.86324003E-19  2.72135096E-04  2.54400658E-17  1.34033631E-19 -4.37325602E-04
  2.06093272E-17 -9.60530344E-19 -2.18267397E-04  2.05583317E-20 -3.03934121E-05
 -1.21985859E-04 -6.83020293E-20 -2.10304691E-19  2.73109787E-19 -1.71402907E-05
 -1.19944133E-04 -2.34898244E-19 -1.30290996E-18  5.01897884E-19  4.73122406E-05
  2.17198102E-04 -1.09127837E-18 -8.65193898E-18 -3.95316108E-05 -1.93295812E-19
 -1.67206140E-20 -4.50052567E-05  2.05578390E-05 -8.50652203E-20  1.04935508E-19
 -7.44837789E-19 -7.39809077E-18 -7.59120966E-17 -2.03063189E-19  6.30110815E-20
 -6.30240897E-05  1.17754004E-17 -7.56726635E-18 -8.29921859E-05  3.22832003E-19
  9.37538131E-18  7.84521348E-17  1.35772767E-20 -7.87201227E-20 -1.21552695E-04
  9.14363088E-18  6.58537086E-18 -2.12475484E-04 -1.39174895E-20 -6.55210428E-20
  6.58129257E-19 -1.40501343E-18  1.91316615E-18  4.30443311E-18 -4.08979756E-18
  1.56118141E-18  7.35885548E-05 -2.44763521E-18  1.86066203E-18  3.21799693E-05
 -1.50965712E-17 -8.02844689E-19 -1.75611353E-04 -1.11754147E-17 -3.27776803E-18
  8.51506148E-06  6.88718734E-20 -6.63360455E-05 -2.92969215E-05 -1.16624792E-19
 -1.07245527E-19  5.17957675E-19 -3.74074571E-05 -5.97649901E-05 -6.03216288E-19
 -3.57871964E-20  9.11439430E-19  1.03265094E-04 -5.62384907E-05 -2.53025277E-18
  4.76457776E-18  1.81224706E-05  7.95501044E-20 -7.55009403E-20  1.26333642E-05
  4.48703872E-05  3.41046979E-20  1.88548136E-19  7.10296786E-20  6.29624851E-18
  4.45176408E-17 -6.11893393E-20 -2.00735666E-19  5.76487898E-05 -3.96401235E-18
  4.73917735E-18  1.80771519E-04 -9.50609319E-19 -2.30975201E-18 -4.77035152E-17
  4.62539614E-19  3.82842752E-20 -7.00996003E-05 -1.13509673E-17 -7.42052991E-18
 -1.01849090E-04 -9.22599450E-04 -2.22322131E-03  3.27934004E-03  1.06167800E-02
 -6.96449120E-03 -4.99764456E-02  6.02268922E-08 -4.25201276E-03  1.34051225E-19
  4.89881059E-08 -4.96236365E-03  2.15719780E-19  6.57598923E-08  2.68489081E-03
  6.11346224E-20 -1.91281018E-08  6.85795620E-03 -3.76169086E-20  1.49696247E-04
  2.44145019E-19 -2.61218396E-20 -7.53121801E-05  1.93709481E-09  2.45879881E-04
  8.38739572E-19  8.00088914E-20 -1.80685669E-04  6.15449357E-09  1.17845113E-03
  3.75694949E-18 -4.22795606E-21 -1.10151106E-03  1.86714371E-08 -2.72890067E-20
  1.54101392E-09 -6.39319392E-05 -1.41619951E-20 -1.33522616E-19  1.00673114E-09
 -2.13551422E-05 -1.09803102E-03 -3.62600586E-03  1.71032585E-02 -5.20333457E-04
  2.66968865E-04  1.87699028E-19 -6.54608967E-03  6.78817915E-03 -1.59885534E-18
 -1.09799278E-03 -3.62589525E-03  1.71034969E-02  5.20326368E-04  2.66951876E-04
 -2.24943761E-19  6.54609217E-03  6.78808668E-03  8.94132760E-19  4.74503140E-22
  1.44426555E-20 -2.63893274E-19  6.00200122E-19 -3.82328714E-19 -1.42436108E-18
 -5.33276067E-19 -7.24722085E-19  2.26703899E-06 -3.23072304E-19 -8.13389403E-19
  5.61998878E-07 -2.07868547E-18  2.45932044E-19 -1.43739161E-05 -1.54297138E-18
  1.28790623E-18  3.66976812E-06 -3.33212120E-20  2.86828574E-05 -7.72087271E-07
  4.98035161E-20 -1.21688137E-20 -2.35411746E-19  1.61752586E-05 -5.55525914E-06
  2.43207387E-19  4.33423508E-20 -4.22459965E-19 -4.46492393E-05 -9.04809491E-06
  1.07802431E-18  6.80184799E-19  2.55583974E-06  7.68611039E-21  2.94294651E-20
  2.02659086E-06 -1.94008610E-05 -1.13925240E-21 -8.48638251E-20  2.18163349E-19
 -3.07100643E-19  6.53566297E-18  1.23213330E-19  3.45887266E-20 -2.71707171E-05
 -2.50499841E-18  1.29452600E-18 -5.46378195E-05  1.46397355E-19 -1.49015179E-18
 -6.08362776E-18 -9.80180921E-20  2.92916901E-20  2.80650453E-05  4.96571146E-19
 -2.39176155E-19  6.75614667E-05  5.30624829E-21  1.71752171E-20 -1.10162908E-19
  2.29662921E-19 -6.18948899E-19 -1.03284206E-18  2.27003482E-18 -2.05549336E-19
  6.26514172E-05  1.61566483E-18 -2.70802750E-19  4.28148311E-05  8.58324105E-18
  2.16781874E-19 -3.64968222E-05  6.68631395E-18  5.93035136E-19 -4.28646253E-05
 -1.20456190E-20  9.86367936E-06 -1.41147630E-05  1.46509624E-20 -6.69192366E-21
 -7.01090567E-20  5.56197508E-06 -7.37084667E-06  9.80488593E-20 -2.39889725E-19
 -1.18716650E-19 -1.53550329E-05  5.48889198E-05  3.89512119E-19 -2.82686617E-18
 -1.19902724E-05 -5.69128268E-20  1.47006567E-20 -1.15802198E-05 -6.67203396E-06
 -2.45372688E-20 -2.44971841E-20 -1.66605637E-19 -2.94556361E-18 -2.54959271E-17
 -2.46804737E-20  5.84908939E-20 -2.50998919E-05  3.27576487E-18 -2.64269716E-18
 -5.84694051E-05  2.94378141E-19  2.38320807E-18  2.67493633E-17 -1.07332014E-19
 -2.32831566E-20 -6.10415073E-06  4.52155279E-18  3.09123170E-18 -1.64445548E-05
 -1.40125107E-04 -3.37664544E-04  4.98068660E-04  1.61248462E-03 -1.05777222E-03
 -7.59046059E-03  9.14730622E-09 -6.45798934E-04  2.03598020E-20  7.44035081E-09
 -7.53687567E-04  3.27636843E-20  9.98766249E-09  4.07783260E-04  9.28517298E-21
 -2.90519066E-09  1.04159161E-03 -5.71328470E-21  2.27359799E-05  3.70809314E-20
 -3.96740487E-21 -1.14384712E-05  2.94207434E-10  3.73444235E-05  1.27388405E-19
  1.21518113E-20 -2.74426769E-05  9.34749167E-10  1.78984055E-04  5.70608347E-19
 -6.42145184E-22 -1.67298338E-04  2.83583208E-09 -4.14467510E-21  2.34050367E-10
 -9.71003159E-06 -2.15093460E-21 -2.02795166E-20  1.52903091E-10 -3.24343525E-06
 -1.66769786E-04 -5.50720530E-04  2.59765592E-03 -7.90286414E-05  4.05474343E-05
  2.85078712E-20 -9.94225080E-04  1.03099381E-03 -2.42835365E-19 -1.66763979E-04
 -5.50703731E-04  2.59769213E-03  7.90275647E-05  4.05448541E-05 -3.41646297E-20
  9.94225460E-04  1.03097977E-03  1.35801564E-19
Grdnt Energy                               R     -7.644088066735493E+01
Grdnt NVar                                 I                0
Grdnt IGetFC                               I                7
Mulliken Charges                           R   N=           3
 -6.77459375E-01  3.38730028E-01  3.38729347E-01
ESP Charges                                R   N=           3
 -6.96418407E-01  3.48208869E-01  3.48209537E-01
NPA Charges                                R   N=           3
 -9.25448533E-01  4.62724434E-01  4.62724099E-01
MBS Charges                                R   N=           3
 -6.70393420E-01  3.35195759E-01  3.35197660E-01
Type 6 Charges                             R   N=           3
 -3.00592470E-01  1.50296653E-01  1.50295835E-01
Type 7 Charges                             R   N=           3
 -6.34874582E-01  3.17436825E-01  3.17437774E-01
ONIOM Charges                              I   N=          16
           0           0           0           0           0           0
           0           0           0           0           0           0
           0           0           0           0
ONIOM Multiplicities                       I   N=          16
           1           0           0           0           0           0
           0           0           0           0           0           0
           0           0           0           0
Atom Layers                                I   N=           3
           1           1           1
Atom Modifiers                             I   N=           3
           0           0           0
Int Atom Modified Types                    I   N=           3
           0           0           0
Force Field                                I                0
Atom Modified Types                        C   N=           3
                                    
Link Atoms                                 I   N=           3
           0           0           0
Atom Modified MM Charges                   R   N=           3
  0.00000000E+00  0.00000000E+00  0.00000000E+00
Link Distances                             R   N=          12
  0.00000000E+00  0.00000000E+00  0.00000000E+00  0.00000000E+00  0.00000000E+00
  0.00000000E+00  0.00000000E+00  0.00000000E+00  0.00000000E+00  0.00000000E+00
  0.00000000E+00  0.00000000E+00
Cartesian Gradient                         R   N=           9
 -3.55113515E-06  1.37831945E-03  7.86511000E-16  1.56190873E-03 -6.90519060E-04
 -6.84290133E-16 -1.55835759E-03 -6.87800388E-04 -1.02504292E-16
Nonadiabatic coupling                      R   N=           9
  0.00000000E+00  0.00000000E+00  0.00000000E+00  0.00000000E+00  0.00000000E+00
  0.00000000E+00  0.00000000E+00  0.00000000E+00  0.00000000E+00
Dipole Moment                              R   N=           3
 -8.70521883E-07 -7.36095704E-01 -1.07463479E-16
Quadrupole Moment                          R   N=           6
  1.36274346E+00 -1.62257709E-01 -1.20048575E+00 -8.65801099E-06 -2.26847732E-16
 -5.24119162E-16
Anisotropic Hyperfine tensors              R   N=          18
  0.00000000E+00  0.00000000E+00  0.00000000E+00  0.00000000E+00  0.00000000E+00
  0.00000000E+00  0.00000000E+00  0.00000000E+00  0.00000000E+00  0.00000000E+00
  0.00000000E+00  0.00000000E+00  0.00000000E+00  0.00000000E+00  0.00000000E+00
  0.00000000E+00  0.00000000E+00  0.00000000E+00
Isotropic Hyperfine splittings             R   N=           3
  0.00000000E+00  0.00000000E+00  0.00000000E+00
QEq coupling tensors                       R   N=          18
 -1.54896600E+00  1.20876824E-05 -1.72034943E-01 -9.93084501E-17  2.93301367E-16
  1.72100094E+00 -2.48559614E-01  3.41500136E-01 -3.10682689E-02  1.30733035E-16
 -4.13094322E-17  2.79627883E-01 -2.48570116E-01 -3.41508817E-01 -3.10652200E-02
 -5.99587336E-19  1.81799420E-17  2.79635336E-01
ClPar MaxAn                                I              200
ClPar NIntPar                              I                4
ClPar NRealPar                             I               16
ClPar NBits                                I               30
ClPar LenBitVec                            I                1
ClPar Read BitMap                          I   N=         200
           0           0           0           0           0           0
           0           0           0           0           0           0
           0           0           0           0           0           0
           0           0           0           0           0           0
           0           0           0           0           0           0
           0           0           0           0           0           0
           0           0           0           0           0           0
           0           0           0           0           0           0
           0           0           0           0           0           0
           0           0           0           0           0           0
           0           0           0           0           0           0
           0           0           0           0           0           0
           0           0           0           0           0           0
           0           0           0           0           0           0
           0           0           0           0           0           0
           0           0           0           0           0           0
           0           0           0           0           0           0
           0           0           0           0           0           0
           0           0           0           0           0           0
           0           0           0           0           0           0
           0           0           0           0           0           0
           0           0           0           0           0           0
           0           0           0           0           0           0
           0           0           0           0           0           0
           0           0           0           0           0           0
           0           0           0           0           0           0
           0           0           0           0           0           0
           0           0           0           0           0           0
           0           0           0           0           0           0
           0           0           0           0           0           0
           0           0           0           0           0           0
           0           0           0           0           0           0
           0           0           0           0           0           0
           0           0
ClPar Default BitMap                       I   N=         200
        2016        2016        2016        2016        2016        2016
        2016        2016        2016        2016        2016        2016
        2016        2016        2016        2016        2016        2016
        2016        2016        2016        2016        2016        2016
        2016        2016        2016        2016        2016        2016
        2016        2016        2016        2016        2016        2016
        2016        2016        2016        2016        2016        2016
        2016        2016        2016        2016        2016        2016
        2016        2016        2016        2016        2016        2016
        2016        2016        2016        2016        2016        2016
        2016        2016        2016        2016        2016        2016
        2016        2016        2016        2016        2016        2016
        2016        2016        2016        2016        2016        2016
        2016        2016        2016        2016        2016        2016
        2016        2016         480         480         480         480
         480         480         480         480         480         480
         480         480         480         480         480         480
         480         480         480         480         480         480
         480         480         480         480         480         480
         480         480         480         480         480         480
         480         480         480         480         480         480
         480         480         480         480         480         480
         480         480         480         480         480         480
         480         480         480         480         480         480
         480         480         480         480         480         480
         480         480         480         480         480         480
         480         480         480         480         480         480
         480         480         480         480         480         480
         480         480         480         480         480         480
         480         480         480         480         480         480
         480         480         480         480         480         480
         480         480         480         480         480         480
         480         480         480         480         480         480
         480         480
ClPar Int Params                           I   N=         800
           0           0           0           0           0           0
           0           0           0           0           0           0
           0           0           0           0           0           0
           0           0           0           0           0           0
           0           0           0           0           0           0
           0           0           0           0           0           0
           0           0           0           0           0           0
           0           0           0           0           0           0
           0           0           0           0           0           0
           0           0           0           0           0           0
           0           0           0           0           0           0
           0           0           0           0           0           0
           0           0           0           0           0           0
           0           0           0           0           0           0
           0           0           0           0           0           0
           0           0           0           0           0           0
           0           0           0           0           0           0
           0           0           0           0           0           0
           0           0           0           0           0           0
           0           0           0           0           0           0
           0           0           0           0           0           0
           0           0           0           0           0           0
           0           0           0           0           0           0
           0           0           0           0           0           0
           0           0           0           0           0           0
           0           0           0           0           0           0
           0           0           0           0           0           0
           0           0           0           0           0           0
           0           0           0           0           0           0
           0           0           0           0           0           0
           0           0           0           0           0           0
           0           0           0           0           0           0
           0           0           0           0           0           0
           0           0           0           0           0           0
           0           0           0           0           0           0
           0           0           0           0           0           0
           0           0           0           0           0           0
           0           0           0           0           0           0
           0           0           0           0           0           0
           0           0           0           0           0           0
           0           0           0           0           0           0
           0           0           0           0           0           0
           0           0           0           0           0           0
           0           0           0           0           0           0
           0           0           0           0           0           0
           0           0           0           0           0           0
           0           0           0           0           0           0
           0           0           0           0           0           0
           0           0           0           0           0           0
           0           0           0           0           0           0
           0           0           0           0           0           0
           0           0           0           0           0           0
           0           0           0           0           0           0
           0           0           0           0           0           0
           0           0           0           0           0           0
           0           0           0           0           0           0
           0           0           0           0           0           0
           0           0           0           0           0           0
           0           0           0           0           0           0
           0           0           0           0           0           0
           0           0           0           0           0           0
           0           0           0           0           0           0
           0           0           0           0           0           0
           0           0           0           0           0           0
           0           0           0           0           0           0
           0           0           0           0           0           0
           0           0           0           0           0           0
           0           0           0           0           0           0
           0           0           0           0           0           0
           0           0           0           0           0           0
           0           0           0           0           0           0
           0           0           0           0           0           0
           0           0           0           0           0           0
           0           0           0           0           0           0
           0           0           0           0           0           0
           0           0           0           0           0           0
           0           0           0           0           0           0
           0           0           0           0           0           0
           0           0           0           0           0           0
           0           0           0           0           0           0
           0           0           0           0           0           0
           0           0           0           0           0           0
           0           0           0           0           0           0
           0           0           0           0           0           0
           0           0           0           0           0           0
           0           0           0           0           0           0
           0           0           0           0           0           0
           0           0           0           0           0           0
           0           0           0           0           0           0
           0           0           0           0           0           0
           0           0           0           0           0           0
           0           0           0           0           0           0
           0           0           0           0           0           0
           0           0           0           0           0           0
           0           0           0           0           0           0
           0           0           0           0           0           0
           0           0           0           0           0           0
           0           0           0           0           0           0
           0           0           0           0           0           0
           0           0           0           0           0           0
           0           0           0           0           0           0
           0           0           0           0           0           0
           0           0           0           0           0           0
           0           0           0           0           0           0
           0           0           0           0           0           0
           0           0           0           0           0           0
           0           0           0           0           0           0
           0           0           0           0           0           0
           0           0           0           0           0           0
           0           0           0           0           0           0
           0           0           0           0           0           0
           0           0           0           0           0           0
           0           0           0           0           0           0
           0           0           0           0           0           0
           0           0           0           0           0           0
           0           0           0           0           0           0
           0           0           0           0           0           0
           0           0           0           0           0           0
           0           0           0           0           0           0
           0           0           0           0           0           0
           0           0           0           0           0           0
           0           0           0           0           0           0
           0           0           0           0           0           0
           0           0           0           0           0           0
           0           0           0           0           0           0
           0           0           0           0           0           0
           0           0           0           0           0           0
           0           0           0           0           0           0
           0           0           0           0           0           0
           0           0           0           0           0           0
           0           0           0           0           0           0
           0           0           0           0           0           0
           0           0           0           0           0           0
           0           0
ClPar Real Params                          R   N=        3200
  0.00000000E+00  0.00000000E+00  0.00000000E+00  0.00000000E+00  0.00000000E+00
  0.00000000E+00  0.00000000E+00  0.00000000E+00  0.00000000E+00  0.00000000E+00
  0.00000000E+00  0.00000000E+00  0.00000000E+00  0.00000000E+00  0.00000000E+00
  0.00000000E+00  0.00000000E+00  0.00000000E+00  0.00000000E+00  0.00000000E+00
  0.00000000E+00  0.00000000E+00  0.00000000E+00  0.00000000E+00  0.00000000E+00
  0.00000000E+00  0.00000000E+00  0.00000000E+00  0.00000000E+00  0.00000000E+00
  0.00000000E+00  0.00000000E+00  0.00000000E+00  0.00000000E+00  0.00000000E+00
  0.00000000E+00  0.00000000E+00  0.00000000E+00  0.00000000E+00  0.00000000E+00
  0.00000000E+00  0.00000000E+00  0.00000000E+00  0.00000000E+00  0.00000000E+00
  0.00000000E+00  0.00000000E+00  0.00000000E+00  0.00000000E+00  0.00000000E+00
  0.00000000E+00  0.00000000E+00  0.00000000E+00  0.00000000E+00  0.00000000E+00
  0.00000000E+00  0.00000000E+00  0.00000000E+00  0.00000000E+00  0.00000000E+00
  0.00000000E+00  0.00000000E+00  0.00000000E+00  0.00000000E+00  0.00000000E+00
  0.00000000E+00  0.00000000E+00  0.00000000E+00  0.00000000E+00  0.00000000E+00
  0.00000000E+00  0.00000000E+00  0.00000000E+00  0.00000000E+00  0.00000000E+00
  0.00000000E+00  0.00000000E+00  0.00000000E+00  0.00000000E+00  0.00000000E+00
  0.00000000E+00  0.00000000E+00  0.00000000E+00  0.00000000E+00  0.00000000E+00
  0.00000000E+00  0.00000000E+00  0.00000000E+00  0.00000000E+00  0.00000000E+00
  0.00000000E+00  0.00000000E+00  0.00000000E+00  0.00000000E+00  0.00000000E+00
  0.00000000E+00  0.00000000E+00  0.00000000E+00  0.00000000E+00  0.00000000E+00
  0.00000000E+00  0.00000000E+00  0.00000000E+00  0.00000000E+00  0.00000000E+00
  0.00000000E+00  0.00000000E+00  0.00000000E+00  0.00000000E+00  0.00000000E+00
  0.00000000E+00  0.00000000E+00  0.00000000E+00  0.00000000E+00  0.00000000E+00
  0.00000000E+00  0.00000000E+00  0.00000000E+00  0.00000000E+00  0.00000000E+00
  0.00000000E+00  0.00000000E+00  0.00000000E+00  0.00000000E+00  0.00000000E+00
  0.00000000E+00  0.00000000E+00  0.00000000E+00  0.00000000E+00  0.00000000E+00
  0.00000000E+00  0.00000000E+00  0.00000000E+00  0.00000000E+00  0.00000000E+00
  0.00000000E+00  0.00000000E+00  0.00000000E+00  0.00000000E+00  0.00000000E+00
  0.00000000E+00  0.00000000E+00  0.00000000E+00  0.00000000E+00  0.00000000E+00
  0.00000000E+00  0.00000000E+00  0.00000000E+00  0.00000000E+00  0.00000000E+00
  0.00000000E+00  0.00000000E+00  0.00000000E+00  0.00000000E+00  0.00000000E+00
  0.00000000E+00  0.00000000E+00  0.00000000E+00  0.00000000E+00  0.00000000E+00
  0.00000000E+00  0.00000000E+00  0.00000000E+00  0.00000000E+00  0.00000000E+00
  0.00000000E+00  0.00000000E+00  0.00000000E+00  0.00000000E+00  0.00000000E+00
  0.00000000E+00  0.00000000E+00  0.00000000E+00  0.00000000E+00  0.00000000E+00
  0.00000000E+00  0.00000000E+00  0.00000000E+00  0.00000000E+00  0.00000000E+00
  0.00000000E+00  0.00000000E+00  0.00000000E+00  0.00000000E+00  0.00000000E+00
  0.00000000E+00  0.00000000E+00  0.00000000E+00  0.00000000E+00  0.00000000E+00
  0.00000000E+00  0.00000000E+00  0.00000000E+00  0.00000000E+00  0.00000000E+00
  0.00000000E+00  0.00000000E+00  0.00000000E+00  0.00000000E+00  0.00000000E+00
  2.26000000E-01  4.43000000E-01  1.01000000E-01  1.47000000E-01  1.92000000E-01
  2.40000000E-01  2.75000000E-01  3.03000000E-01  3.25000000E-01  4.13000000E-01
  9.60000000E-02  1.35000000E-01  1.73000000E-01  2.11000000E-01  2.48000000E-01
  2.86000000E-01  3.23000000E-01  3.60000000E-01  8.20000000E-02  1.04000000E-01
  1.17000000E-01  1.23000000E-01  1.29000000E-01  1.34000000E-01  1.40000000E-01
  1.44000000E-01  1.48000000E-01  1.52000000E-01  1.55000000E-01  1.76000000E-01
  1.98000000E-01  2.19000000E-01  2.39000000E-01  2.60000000E-01  2.80000000E-01
  3.00000000E-01  7.90000000E-02  9.90000000E-02  1.19000000E-01  1.26000000E-01
  1.33000000E-01  1.40000000E-01  1.47000000E-01  1.53000000E-01  1.58000000E-01
  1.63000000E-01  1.57000000E-01  1.70000000E-01  1.87000000E-01  2.03000000E-01
  2.19000000E-01  2.34000000E-01  2.50000000E-01  2.65000000E-01  7.40000000E-02
  9.20000000E-02  1.05000000E-01  1.06000000E-01  1.07000000E-01  1.08000000E-01
  1.09000000E-01  1.10000000E-01  1.11000000E-01  1.12000000E-01  1.13000000E-01
  1.14000000E-01  1.15000000E-01  1.16000000E-01  1.17000000E-01  1.17000000E-01
  1.26000000E-01  1.36000000E-01  1.46000000E-01  1.55000000E-01  1.65000000E-01
  1.73000000E-01  1.82000000E-01  1.90000000E-01  1.62000000E-01  1.78000000E-01
  1.10000000E-01  1.35000000E-01  1.59000000E-01  1.83000000E-01  2.07000000E-01
  2.31000000E-01  6.90000000E-02  9.40000000E-02  1.02000000E-01  1.03000000E-01
  1.05000000E-01  1.07000000E-01  1.09000000E-01  1.11000000E-01  1.13000000E-01
  1.15000000E-01  1.17000000E-01  1.19000000E-01  1.20000000E-01  1.22000000E-01
  1.24000000E-01  1.26000000E-01  1.28000000E-01  1.28000000E-01  1.28000000E-01
  1.28000000E-01  1.28000000E-01  1.28000000E-01  1.28000000E-01  1.28000000E-01
  1.28000000E-01  1.28000000E-01  1.28000000E-01  1.28000000E-01  1.28000000E-01
  1.28000000E-01  1.28000000E-01  1.28000000E-01  1.28000000E-01  1.28000000E-01
  1.28000000E-01  1.28000000E-01  1.28000000E-01  1.28000000E-01  1.28000000E-01
  1.28000000E-01  1.28000000E-01  1.28000000E-01  1.28000000E-01  1.28000000E-01
  1.28000000E-01  1.28000000E-01  1.28000000E-01  1.28000000E-01  1.28000000E-01
  1.28000000E-01  1.28000000E-01  1.28000000E-01  1.28000000E-01  1.28000000E-01
  1.28000000E-01  1.28000000E-01  1.28000000E-01  1.28000000E-01  1.28000000E-01
  1.28000000E-01  1.28000000E-01  1.28000000E-01  1.28000000E-01  1.28000000E-01
  1.28000000E-01  1.28000000E-01  1.28000000E-01  1.28000000E-01  1.28000000E-01
  1.28000000E-01  1.28000000E-01  1.28000000E-01  1.28000000E-01  1.28000000E-01
  1.28000000E-01  1.28000000E-01  1.28000000E-01  1.28000000E-01  1.28000000E-01
  1.28000000E-01  1.28000000E-01  1.28000000E-01  1.28000000E-01  1.28000000E-01
  1.28000000E-01  1.28000000E-01  1.28000000E-01  1.28000000E-01  1.28000000E-01
  1.28000000E-01  1.28000000E-01  1.28000000E-01  1.28000000E-01  1.28000000E-01
  1.28000000E-01  1.28000000E-01  1.28000000E-01  1.28000000E-01  1.28000000E-01
  1.28000000E-01  1.28000000E-01  1.28000000E-01  1.28000000E-01  1.28000000E-01
  1.28000000E-01  1.28000000E-01  1.28000000E-01  1.28000000E-01  1.28000000E-01
  1.28000000E-01  1.28000000E-01  1.28000000E-01  1.28000000E-01  1.28000000E-01
  5.47000000E-01  5.92000000E-01  5.99000000E-01  6.68000000E-01  6.98000000E-01
  7.18000000E-01  7.26000000E-01  7.36000000E-01  7.43000000E-01  7.45000000E-01
  6.07000000E-01  6.66000000E-01  6.93000000E-01  7.09000000E-01  7.20000000E-01
  7.29000000E-01  7.35000000E-01  7.40000000E-01  6.08000000E-01  7.34000000E-01
  7.46000000E-01  7.55000000E-01  7.61000000E-01  7.65000000E-01  7.67000000E-01
  7.60000000E-01  7.49000000E-01  7.33000000E-01  7.08000000E-01  6.48000000E-01
  6.88000000E-01  7.09000000E-01  7.22000000E-01  7.31000000E-01  7.38000000E-01
  7.44000000E-01  6.09000000E-01  7.30000000E-01  7.41000000E-01  7.52000000E-01
  7.58000000E-01  7.63000000E-01  7.66000000E-01  7.58000000E-01  7.48000000E-01
  7.33000000E-01  7.01000000E-01  6.45000000E-01  6.86000000E-01  7.08000000E-01
  7.22000000E-01  7.31000000E-01  7.38000000E-01  7.44000000E-01  6.08000000E-01
  7.28000000E-01  7.32000000E-01  7.32000000E-01  7.32000000E-01  7.32000000E-01
  7.32000000E-01  7.32000000E-01  7.32000000E-01  7.32000000E-01  7.32000000E-01
  7.31000000E-01  7.31000000E-01  7.31000000E-01  7.31000000E-01  7.46000000E-01
  7.37000000E-01  7.46000000E-01  7.51000000E-01  7.55000000E-01  7.58000000E-01
  7.47000000E-01  7.32000000E-01  7.11000000E-01  7.41000000E-01  7.07000000E-01
  7.47000000E-01  7.43000000E-01  7.42000000E-01  7.42000000E-01  7.43000000E-01
  7.44000000E-01  6.05000000E-01  7.24000000E-01  7.26000000E-01  7.26000000E-01
  7.27000000E-01  7.27000000E-01  7.27000000E-01  7.28000000E-01  7.28000000E-01
  7.28000000E-01  7.28000000E-01  7.28000000E-01  7.29000000E-01  7.29000000E-01
  7.29000000E-01  7.29000000E-01  7.29000000E-01  7.29000000E-01  7.29000000E-01
  7.29000000E-01  7.29000000E-01  7.29000000E-01  7.29000000E-01  7.29000000E-01
  7.29000000E-01  7.29000000E-01  7.29000000E-01  7.29000000E-01  7.29000000E-01
  7.29000000E-01  7.29000000E-01  7.29000000E-01  7.29000000E-01  7.29000000E-01
  7.29000000E-01  7.29000000E-01  7.29000000E-01  7.29000000E-01  7.29000000E-01
  7.29000000E-01  7.29000000E-01  7.29000000E-01  7.29000000E-01  7.29000000E-01
  7.29000000E-01  7.29000000E-01  7.29000000E-01  7.29000000E-01  7.29000000E-01
  7.29000000E-01  7.29000000E-01  7.29000000E-01  7.29000000E-01  7.29000000E-01
  7.29000000E-01  7.29000000E-01  7.29000000E-01  7.29000000E-01  7.29000000E-01
  7.29000000E-01  7.29000000E-01  7.29000000E-01  7.29000000E-01  7.29000000E-01
  7.29000000E-01  7.29000000E-01  7.29000000E-01  7.29000000E-01  7.29000000E-01
  7.29000000E-01  7.29000000E-01  7.29000000E-01  7.29000000E-01  7.29000000E-01
  7.29000000E-01  7.29000000E-01  7.29000000E-01  7.29000000E-01  7.29000000E-01
  7.29000000E-01  7.29000000E-01  7.29000000E-01  7.29000000E-01  7.29000000E-01
  7.29000000E-01  7.29000000E-01  7.29000000E-01  7.29000000E-01  7.29000000E-01
  7.29000000E-01  7.29000000E-01  7.29000000E-01  7.29000000E-01  7.29000000E-01
  7.29000000E-01  7.29000000E-01  7.29000000E-01  7.29000000E-01  7.29000000E-01
  7.29000000E-01  7.29000000E-01  7.29000000E-01  7.29000000E-01  7.29000000E-01
  7.29000000E-01  7.29000000E-01  7.29000000E-01  7.29000000E-01  7.29000000E-01
  7.29000000E-01  7.29000000E-01  7.29000000E-01  7.29000000E-01  7.29000000E-01
  1.00000000E+00  1.70400000E+00  3.23000000E-01  3.89000000E-01  4.67000000E-01
  5.67000000E-01  6.36000000E-01  6.64000000E-01  6.96000000E-01  8.79000000E-01
  3.07000000E-01  3.48000000E-01  4.00000000E-01  4.54000000E-01  5.09000000E-01
  5.65000000E-01  6.21000000E-01  6.77000000E-01  2.56000000E-01  3.50000000E-01
  3.64000000E-01  3.62000000E-01  3.62000000E-01  3.62000000E-01  3.62000000E-01
  3.65000000E-01  3.69000000E-01  3.75000000E-01  3.86000000E-01  4.46000000E-01
  4.55000000E-01  4.74000000E-01  4.96000000E-01  5.20000000E-01  5.45000000E-01
  5.70000000E-01  2.45000000E-01  3.22000000E-01  3.55000000E-01  3.59000000E-01
  3.64000000E-01  3.70000000E-01  3.76000000E-01  3.85000000E-01  3.95000000E-01
  4.08000000E-01  3.76000000E-01  4.23000000E-01  4.22000000E-01  4.32000000E-01
  4.45000000E-01  4.59000000E-01  4.75000000E-01  4.91000000E-01  2.28000000E-01
  2.92000000E-01  2.89000000E-01  2.92000000E-01  2.95000000E-01  2.98000000E-01
  3.00000000E-01  3.03000000E-01  3.06000000E-01  3.09000000E-01  3.12000000E-01
  3.15000000E-01  3.18000000E-01  3.21000000E-01  3.24000000E-01  3.61000000E-01
  3.69000000E-01  3.70000000E-01  3.72000000E-01  3.75000000E-01  3.78000000E-01
  3.85000000E-01  3.94000000E-01  4.07000000E-01  5.26000000E-01  6.21000000E-01
  3.36000000E-01  3.54000000E-01  3.71000000E-01  3.86000000E-01  4.02000000E-01
  4.17000000E-01  2.09000000E-01  2.94000000E-01  2.65000000E-01  2.72000000E-01
  2.78000000E-01  2.84000000E-01  2.91000000E-01  2.97000000E-01  3.03000000E-01
  3.10000000E-01  3.16000000E-01  3.22000000E-01  3.29000000E-01  3.35000000E-01
  3.41000000E-01  3.48000000E-01  3.54000000E-01  3.54000000E-01  3.54000000E-01
  3.54000000E-01  3.54000000E-01  3.54000000E-01  3.54000000E-01  3.54000000E-01
  3.54000000E-01  3.54000000E-01  3.54000000E-01  3.54000000E-01  3.54000000E-01
  3.54000000E-01  3.54000000E-01  3.54000000E-01  3.54000000E-01  3.54000000E-01
  3.54000000E-01  3.54000000E-01  3.54000000E-01  3.54000000E-01  3.54000000E-01
  3.54000000E-01  3.54000000E-01  3.54000000E-01  3.54000000E-01  3.54000000E-01
  3.54000000E-01  3.54000000E-01  3.54000000E-01  3.54000000E-01  3.54000000E-01
  3.54000000E-01  3.54000000E-01  3.54000000E-01  3.54000000E-01  3.54000000E-01
  3.54000000E-01  3.54000000E-01  3.54000000E-01  3.54000000E-01  3.54000000E-01
  3.54000000E-01  3.54000000E-01  3.54000000E-01  3.54000000E-01  3.54000000E-01
  3.54000000E-01  3.54000000E-01  3.54000000E-01  3.54000000E-01  3.54000000E-01
  3.54000000E-01  3.54000000E-01  3.54000000E-01  3.54000000E-01  3.54000000E-01
  3.54000000E-01  3.54000000E-01  3.54000000E-01  3.54000000E-01  3.54000000E-01
  3.54000000E-01  3.54000000E-01  3.54000000E-01  3.54000000E-01  3.54000000E-01
  3.54000000E-01  3.54000000E-01  3.54000000E-01  3.54000000E-01  3.54000000E-01
  3.54000000E-01  3.54000000E-01  3.54000000E-01  3.54000000E-01  3.54000000E-01
  3.54000000E-01  3.54000000E-01  3.54000000E-01  3.54000000E-01  3.54000000E-01
  3.54000000E-01  3.54000000E-01  3.54000000E-01  3.54000000E-01  3.54000000E-01
  3.54000000E-01  3.54000000E-01  3.54000000E-01  3.54000000E-01  3.54000000E-01
  3.54000000E-01  3.54000000E-01  3.54000000E-01  3.54000000E-01  3.54000000E-01
  2.74000000E-01  2.96000000E-01  5.80000000E-02  4.40000000E-02  3.90000000E-02
  3.90000000E-02  3.60000000E-02  3.20000000E-02  2.90000000E-02  3.30000000E-02
  5.50000000E-02  3.90000000E-02  3.30000000E-02  3.00000000E-02  2.80000000E-02
  2.60000000E-02  2.50000000E-02  2.50000000E-02  4.50000000E-02  4.40000000E-02
  3.30000000E-02  2.50000000E-02  2.10000000E-02  1.80000000E-02  1.50000000E-02
  1.80000000E-02  2.10000000E-02  2.50000000E-02  3.30000000E-02  5.00000000E-02
  3.80000000E-02  3.10000000E-02  2.70000000E-02  2.40000000E-02  2.20000000E-02
  2.10000000E-02  4.30000000E-02  4.00000000E-02  3.20000000E-02  2.50000000E-02
  2.10000000E-02  1.80000000E-02  1.60000000E-02  1.90000000E-02  2.20000000E-02
  2.80000000E-02  3.10000000E-02  4.70000000E-02  3.40000000E-02  2.80000000E-02
  2.40000000E-02  2.10000000E-02  1.90000000E-02  1.80000000E-02  3.90000000E-02
  3.60000000E-02  2.50000000E-02  2.50000000E-02  2.50000000E-02  2.60000000E-02
  2.60000000E-02  2.60000000E-02  2.70000000E-02  2.70000000E-02  2.70000000E-02
  2.70000000E-02  2.80000000E-02  2.80000000E-02  2.80000000E-02  3.30000000E-02
  3.30000000E-02  2.60000000E-02  2.10000000E-02  1.80000000E-02  1.60000000E-02
  1.80000000E-02  2.20000000E-02  2.60000000E-02  4.90000000E-02  8.20000000E-02
  3.00000000E-02  2.40000000E-02  2.10000000E-02  1.80000000E-02  1.60000000E-02
  1.50000000E-02  3.50000000E-02  3.60000000E-02  2.20000000E-02  2.30000000E-02
  2.40000000E-02  2.40000000E-02  2.50000000E-02  2.50000000E-02  2.60000000E-02
  2.70000000E-02  2.70000000E-02  2.80000000E-02  2.80000000E-02  2.90000000E-02
  3.00000000E-02  3.00000000E-02  3.10000000E-02  3.10000000E-02  3.10000000E-02
  3.10000000E-02  3.10000000E-02  3.10000000E-02  3.10000000E-02  3.10000000E-02
  3.10000000E-02  3.10000000E-02  3.10000000E-02  3.10000000E-02  3.10000000E-02
  3.10000000E-02  3.10000000E-02  3.10000000E-02  3.10000000E-02  3.10000000E-02
  3.10000000E-02  3.10000000E-02  3.10000000E-02  3.10000000E-02  3.10000000E-02
  3.10000000E-02  3.10000000E-02  3.10000000E-02  3.10000000E-02  3.10000000E-02
  3.10000000E-02  3.10000000E-02  3.10000000E-02  3.10000000E-02  3.10000000E-02
  3.10000000E-02  3.10000000E-02  3.10000000E-02  3.10000000E-02  3.10000000E-02
  3.10000000E-02  3.10000000E-02  3.10000000E-02  3.10000000E-02  3.10000000E-02
  3.10000000E-02  3.10000000E-02  3.10000000E-02  3.10000000E-02  3.10000000E-02
  3.10000000E-02  3.10000000E-02  3.10000000E-02  3.10000000E-02  3.10000000E-02
  3.10000000E-02  3.10000000E-02  3.10000000E-02  3.10000000E-02  3.10000000E-02
  3.10000000E-02  3.10000000E-02  3.10000000E-02  3.10000000E-02  3.10000000E-02
  3.10000000E-02  3.10000000E-02  3.10000000E-02  3.10000000E-02  3.10000000E-02
  3.10000000E-02  3.10000000E-02  3.10000000E-02  3.10000000E-02  3.10000000E-02
  3.10000000E-02  3.10000000E-02  3.10000000E-02  3.10000000E-02  3.10000000E-02
  3.10000000E-02  3.10000000E-02  3.10000000E-02  3.10000000E-02  3.10000000E-02
  3.10000000E-02  3.10000000E-02  3.10000000E-02  3.10000000E-02  3.10000000E-02
  3.10000000E-02  3.10000000E-02  3.10000000E-02  3.10000000E-02  3.10000000E-02
  3.10000000E-02  3.10000000E-02  3.10000000E-02  3.10000000E-02  3.10000000E-02
 -5.92770000E-01 -9.17860000E-01 -2.48668000E+00 -8.36430000E-01 -3.18470000E-01
 -4.55790000E-01 -5.70730000E-01 -6.77940000E-01 -7.69860000E-01 -8.51140000E-01
 -1.51908000E+00 -3.18830000E-01 -2.17900000E-01 -3.01260000E-01 -3.72750000E-01
 -4.15890000E-01 -4.45930000E-01 -5.91320000E-01 -9.56370000E-01 -2.88450000E-01
 -4.87320000E-01 -6.34280000E-01 -7.17490000E-01 -7.91980000E-01 -8.68490000E-01
 -9.17520000E-01 -9.54890000E-01 -9.88460000E-01 -1.50055000E+00 -2.92560000E-01
 -2.14960000E-01 -2.91180000E-01 -3.42080000E-01 -3.84480000E-01 -4.34940000E-01
 -5.24310000E-01 -8.10070000E-01 -2.58460000E-01 -4.35550000E-01 -5.32740000E-01
 -6.08450000E-01 -6.10260000E-01 -7.58920000E-01 -8.90130000E-01 -8.45780000E-01
 -8.69340000E-01 -1.38234000E+00 -2.64850000E-01 -1.97280000E-01 -2.65040000E-01
 -2.94470000E-01 -3.16570000E-01 -3.63590000E-01 -4.57840000E-01 -8.61830000E-01
 -1.33004000E+00 -6.82880000E-01 -6.25540000E-01 -6.35430000E-01 -8.79690000E-01
 -9.02690000E-01 -9.59650000E-01 -1.01869000E+00 -6.81170000E-01 -7.96500000E-01
 -9.04950000E-01 -8.34790000E-01 -9.01560000E-01 -9.74130000E-01 -1.03326000E+00
 -7.15490000E-01 -7.83960000E-01 -8.28380000E-01 -5.61040000E-01 -1.03841000E+00
 -8.62500000E-01 -9.59300000E-01 -1.01755000E+00 -7.64900000E-01 -1.29467000E+00
 -1.92740000E-01 -2.56010000E-01 -3.19820000E-01 -1.94660000E-01 -2.60090000E-01
 -4.27990000E-01  0.00000000E+00  0.00000000E+00  0.00000000E+00  0.00000000E+00
  0.00000000E+00  0.00000000E+00  0.00000000E+00  0.00000000E+00  0.00000000E+00
  0.00000000E+00  0.00000000E+00  0.00000000E+00  0.00000000E+00  0.00000000E+00
  0.00000000E+00  0.00000000E+00  0.00000000E+00  0.00000000E+00  0.00000000E+00
  0.00000000E+00  0.00000000E+00  0.00000000E+00  0.00000000E+00  0.00000000E+00
  0.00000000E+00  0.00000000E+00  0.00000000E+00  0.00000000E+00  0.00000000E+00
  0.00000000E+00  0.00000000E+00  0.00000000E+00  0.00000000E+00  0.00000000E+00
  0.00000000E+00  0.00000000E+00  0.00000000E+00  0.00000000E+00  0.00000000E+00
  0.00000000E+00  0.00000000E+00  0.00000000E+00  0.00000000E+00  0.00000000E+00
  0.00000000E+00  0.00000000E+00  0.00000000E+00  0.00000000E+00  0.00000000E+00
  0.00000000E+00  0.00000000E+00  0.00000000E+00  0.00000000E+00  0.00000000E+00
  0.00000000E+00  0.00000000E+00  0.00000000E+00  0.00000000E+00  0.00000000E+00
  0.00000000E+00  0.00000000E+00  0.00000000E+00  0.00000000E+00  0.00000000E+00
  0.00000000E+00  0.00000000E+00  0.00000000E+00  0.00000000E+00  0.00000000E+00
  0.00000000E+00  0.00000000E+00  0.00000000E+00  0.00000000E+00  0.00000000E+00
  0.00000000E+00  0.00000000E+00  0.00000000E+00  0.00000000E+00  0.00000000E+00
  0.00000000E+00  0.00000000E+00  0.00000000E+00  0.00000000E+00  0.00000000E+00
  0.00000000E+00  0.00000000E+00  0.00000000E+00  0.00000000E+00  0.00000000E+00
  0.00000000E+00  0.00000000E+00  0.00000000E+00  0.00000000E+00  0.00000000E+00
  0.00000000E+00  0.00000000E+00  0.00000000E+00  0.00000000E+00  0.00000000E+00
  0.00000000E+00  0.00000000E+00  0.00000000E+00  0.00000000E+00  0.00000000E+00
  0.00000000E+00  0.00000000E+00  0.00000000E+00  0.00000000E+00  0.00000000E+00
  0.00000000E+00  0.00000000E+00  0.00000000E+00  0.00000000E+00  0.00000000E+00
  1.90440000E+00  1.36430000E+00  4.84000000E-01  7.31600000E+00  9.24030000E+00
  8.78200000E+00  5.61290000E+00  4.83340000E+00  3.24870000E+00  2.71090000E+00
  2.01130000E+00  1.50282000E+01  1.46788000E+01  2.13546000E+01  2.38290000E+01
  1.98022000E+01  1.50468000E+01  1.09745000E+01  1.27219000E+01  1.51949000E+01
  1.57342000E+01  2.79222000E+01  1.61366000E+01  2.21252000E+01  2.45676000E+01
  1.96016000E+01  1.79818000E+01  1.72396000E+01  5.01500000E+00  1.92898000E+01
  2.34477000E+01  2.23993000E+01  2.96586000E+01  2.60081000E+01  2.15580000E+01
  1.69594000E+01  1.56479000E+01  1.86897000E+01  1.93530000E+01  3.43444000E+01
  1.98480000E+01  2.72140000E+01  3.02182000E+01  2.41099000E+01  2.21176000E+01
  2.12047000E+01  7.56690000E+00  2.37264000E+01  2.93879000E+01  3.01278000E+01
  4.19382000E+01  3.85203000E+01  3.39511000E+01  2.75774000E+01  1.56460000E+01
  1.04460000E+01  2.01830000E+01  4.99540000E+01  4.76430000E+01  1.18690000E+01
  1.08670000E+01  9.96100000E+00  9.18700000E+00  3.67980000E+01  1.34070000E+01
  9.38200000E+00  9.81700000E+00  8.90800000E+00  8.40700000E+00  8.05800000E+00
  1.29600000E+01  2.67920000E+01  2.49300000E+01  3.45630000E+01  1.11860000E+01
  1.09440000E+01  1.01270000E+01  9.40400000E+00  1.36660000E+01  7.81000000E+00
  6.93600000E+01  5.86630000E+01  4.79690000E+01  4.52740000E+01  3.92290000E+01
  3.30660000E+01  0.00000000E+00  0.00000000E+00  0.00000000E+00  0.00000000E+00
  0.00000000E+00  0.00000000E+00  0.00000000E+00  0.00000000E+00  0.00000000E+00
  0.00000000E+00  0.00000000E+00  0.00000000E+00  0.00000000E+00  0.00000000E+00
  0.00000000E+00  0.00000000E+00  0.00000000E+00  0.00000000E+00  0.00000000E+00
  0.00000000E+00  0.00000000E+00  0.00000000E+00  0.00000000E+00  0.00000000E+00
  0.00000000E+00  0.00000000E+00  0.00000000E+00  0.00000000E+00  0.00000000E+00
  0.00000000E+00  0.00000000E+00  0.00000000E+00  0.00000000E+00  0.00000000E+00
  0.00000000E+00  0.00000000E+00  0.00000000E+00  0.00000000E+00  0.00000000E+00
  0.00000000E+00  0.00000000E+00  0.00000000E+00  0.00000000E+00  0.00000000E+00
  0.00000000E+00  0.00000000E+00  0.00000000E+00  0.00000000E+00  0.00000000E+00
  0.00000000E+00  0.00000000E+00  0.00000000E+00  0.00000000E+00  0.00000000E+00
  0.00000000E+00  0.00000000E+00  0.00000000E+00  0.00000000E+00  0.00000000E+00
  0.00000000E+00  0.00000000E+00  0.00000000E+00  0.00000000E+00  0.00000000E+00
  0.00000000E+00  0.00000000E+00  0.00000000E+00  0.00000000E+00  0.00000000E+00
  0.00000000E+00  0.00000000E+00  0.00000000E+00  0.00000000E+00  0.00000000E+00
  0.00000000E+00  0.00000000E+00  0.00000000E+00  0.00000000E+00  0.00000000E+00
  0.00000000E+00  0.00000000E+00  0.00000000E+00  0.00000000E+00  0.00000000E+00
  0.00000000E+00  0.00000000E+00  0.00000000E+00  0.00000000E+00  0.00000000E+00
  0.00000000E+00  0.00000000E+00  0.00000000E+00  0.00000000E+00  0.00000000E+00
  0.00000000E+00  0.00000000E+00  0.00000000E+00  0.00000000E+00  0.00000000E+00
  0.00000000E+00  0.00000000E+00  0.00000000E+00  0.00000000E+00  0.00000000E+00
  0.00000000E+00  0.00000000E+00  0.00000000E+00  0.00000000E+00  0.00000000E+00
  0.00000000E+00  0.00000000E+00  0.00000000E+00  0.00000000E+00  0.00000000E+00
  0.00000000E+00  0.00000000E+00  0.00000000E+00  0.00000000E+00  0.00000000E+00
  0.00000000E+00  0.00000000E+00  0.00000000E+00  0.00000000E+00  0.00000000E+00
  0.00000000E+00  0.00000000E+00  0.00000000E+00  0.00000000E+00  0.00000000E+00
  0.00000000E+00  0.00000000E+00  0.00000000E+00  0.00000000E+00  0.00000000E+00
  0.00000000E+00  0.00000000E+00  0.00000000E+00  0.00000000E+00  0.00000000E+00
  0.00000000E+00  0.00000000E+00  0.00000000E+00  0.00000000E+00  0.00000000E+00
  0.00000000E+00  0.00000000E+00  0.00000000E+00  0.00000000E+00  0.00000000E+00
  0.00000000E+00  0.00000000E+00  0.00000000E+00  0.00000000E+00  0.00000000E+00
  0.00000000E+00  0.00000000E+00  0.00000000E+00  0.00000000E+00  0.00000000E+00
  0.00000000E+00  0.00000000E+00  0.00000000E+00  0.00000000E+00  0.00000000E+00
  0.00000000E+00  0.00000000E+00  0.00000000E+00  0.00000000E+00  0.00000000E+00
  0.00000000E+00  0.00000000E+00  0.00000000E+00  0.00000000E+00  0.00000000E+00
  0.00000000E+00  0.00000000E+00  0.00000000E+00  0.00000000E+00  0.00000000E+00
  0.00000000E+00  0.00000000E+00  0.00000000E+00  0.00000000E+00  0.00000000E+00
  0.00000000E+00  0.00000000E+00  0.00000000E+00  0.00000000E+00  0.00000000E+00
  0.00000000E+00  0.00000000E+00  0.00000000E+00  0.00000000E+00  0.00000000E+00
  0.00000000E+00  0.00000000E+00  0.00000000E+00  0.00000000E+00  0.00000000E+00
  0.00000000E+00  0.00000000E+00  0.00000000E+00  0.00000000E+00  0.00000000E+00
  0.00000000E+00  0.00000000E+00  0.00000000E+00  0.00000000E+00  0.00000000E+00
  0.00000000E+00  0.00000000E+00  0.00000000E+00  0.00000000E+00  0.00000000E+00
  0.00000000E+00  0.00000000E+00  0.00000000E+00  0.00000000E+00  0.00000000E+00
  0.00000000E+00  0.00000000E+00  0.00000000E+00  0.00000000E+00  0.00000000E+00
  0.00000000E+00  0.00000000E+00  0.00000000E+00  0.00000000E+00  0.00000000E+00
  0.00000000E+00  0.00000000E+00  0.00000000E+00  0.00000000E+00  0.00000000E+00
  0.00000000E+00  0.00000000E+00  0.00000000E+00  0.00000000E+00  0.00000000E+00
  0.00000000E+00  0.00000000E+00  0.00000000E+00  0.00000000E+00  0.00000000E+00
  0.00000000E+00  0.00000000E+00  0.00000000E+00  0.00000000E+00  0.00000000E+00
  0.00000000E+00  0.00000000E+00  0.00000000E+00  0.00000000E+00  0.00000000E+00
  0.00000000E+00  0.00000000E+00  0.00000000E+00  0.00000000E+00  0.00000000E+00
  0.00000000E+00  0.00000000E+00  0.00000000E+00  0.00000000E+00  0.00000000E+00
  0.00000000E+00  0.00000000E+00  0.00000000E+00  0.00000000E+00  0.00000000E+00
  0.00000000E+00  0.00000000E+00  0.00000000E+00  0.00000000E+00  0.00000000E+00
  0.00000000E+00  0.00000000E+00  0.00000000E+00  0.00000000E+00  0.00000000E+00
  0.00000000E+00  0.00000000E+00  0.00000000E+00  0.00000000E+00  0.00000000E+00
  0.00000000E+00  0.00000000E+00  0.00000000E+00  0.00000000E+00  0.00000000E+00
  0.00000000E+00  0.00000000E+00  0.00000000E+00  0.00000000E+00  0.00000000E+00
  0.00000000E+00  0.00000000E+00  0.00000000E+00  0.00000000E+00  0.00000000E+00
  0.00000000E+00  0.00000000E+00  0.00000000E+00  0.00000000E+00  0.00000000E+00
  0.00000000E+00  0.00000000E+00  0.00000000E+00  0.00000000E+00  0.00000000E+00
  0.00000000E+00  0.00000000E+00  0.00000000E+00  0.00000000E+00  0.00000000E+00
  0.00000000E+00  0.00000000E+00  0.00000000E+00  0.00000000E+00  0.00000000E+00
  0.00000000E+00  0.00000000E+00  0.00000000E+00  0.00000000E+00  0.00000000E+00
  0.00000000E+00  0.00000000E+00  0.00000000E+00  0.00000000E+00  0.00000000E+00
  0.00000000E+00  0.00000000E+00  0.00000000E+00  0.00000000E+00  0.00000000E+00
  0.00000000E+00  0.00000000E+00  0.00000000E+00  0.00000000E+00  0.00000000E+00
  0.00000000E+00  0.00000000E+00  0.00000000E+00  0.00000000E+00  0.00000000E+00
  0.00000000E+00  0.00000000E+00  0.00000000E+00  0.00000000E+00  0.00000000E+00
  0.00000000E+00  0.00000000E+00  0.00000000E+00  0.00000000E+00  0.00000000E+00
  0.00000000E+00  0.00000000E+00  0.00000000E+00  0.00000000E+00  0.00000000E+00
  0.00000000E+00  0.00000000E+00  0.00000000E+00  0.00000000E+00  0.00000000E+00
  0.00000000E+00  0.00000000E+00  0.00000000E+00  0.00000000E+00  0.00000000E+00
  0.00000000E+00  0.00000000E+00  0.00000000E+00  0.00000000E+00  0.00000000E+00
  0.00000000E+00  0.00000000E+00  0.00000000E+00  0.00000000E+00  0.00000000E+00
  0.00000000E+00  0.00000000E+00  0.00000000E+00  0.00000000E+00  0.00000000E+00
  0.00000000E+00  0.00000000E+00  0.00000000E+00  0.00000000E+00  0.00000000E+00
  0.00000000E+00  0.00000000E+00  0.00000000E+00  0.00000000E+00  0.00000000E+00
  0.00000000E+00  0.00000000E+00  0.00000000E+00  0.00000000E+00  0.00000000E+00
  0.00000000E+00  0.00000000E+00  0.00000000E+00  0.00000000E+00  0.00000000E+00
  0.00000000E+00  0.00000000E+00  0.00000000E+00  0.00000000E+00  0.00000000E+00
  0.00000000E+00  0.00000000E+00  0.00000000E+00  0.00000000E+00  0.00000000E+00
  0.00000000E+00  0.00000000E+00  0.00000000E+00  0.00000000E+00  0.00000000E+00
  0.00000000E+00  0.00000000E+00  0.00000000E+00  0.00000000E+00  0.00000000E+00
  0.00000000E+00  0.00000000E+00  0.00000000E+00  0.00000000E+00  0.00000000E+00
  0.00000000E+00  0.00000000E+00  0.00000000E+00  0.00000000E+00  0.00000000E+00
  0.00000000E+00  0.00000000E+00  0.00000000E+00  0.00000000E+00  0.00000000E+00
  0.00000000E+00  0.00000000E+00  0.00000000E+00  0.00000000E+00  0.00000000E+00
  0.00000000E+00  0.00000000E+00  0.00000000E+00  0.00000000E+00  0.00000000E+00
  0.00000000E+00  0.00000000E+00  0.00000000E+00  0.00000000E+00  0.00000000E+00
  0.00000000E+00  0.00000000E+00  0.00000000E+00  0.00000000E+00  0.00000000E+00
  0.00000000E+00  0.00000000E+00  0.00000000E+00  0.00000000E+00  0.00000000E+00
  0.00000000E+00  0.00000000E+00  0.00000000E+00  0.00000000E+00  0.00000000E+00
  0.00000000E+00  0.00000000E+00  0.00000000E+00  0.00000000E+00  0.00000000E+00
  0.00000000E+00  0.00000000E+00  0.00000000E+00  0.00000000E+00  0.00000000E+00
  0.00000000E+00  0.00000000E+00  0.00000000E+00  0.00000000E+00  0.00000000E+00
  0.00000000E+00  0.00000000E+00  0.00000000E+00  0.00000000E+00  0.00000000E+00
  0.00000000E+00  0.00000000E+00  0.00000000E+00  0.00000000E+00  0.00000000E+00
  0.00000000E+00  0.00000000E+00  0.00000000E+00  0.00000000E+00  0.00000000E+00
  0.00000000E+00  0.00000000E+00  0.00000000E+00  0.00000000E+00  0.00000000E+00
  0.00000000E+00  0.00000000E+00  0.00000000E+00  0.00000000E+00  0.00000000E+00
  0.00000000E+00  0.00000000E+00  0.00000000E+00  0.00000000E+00  0.00000000E+00
  0.00000000E+00  0.00000000E+00  0.00000000E+00  0.00000000E+00  0.00000000E+00
  0.00000000E+00  0.00000000E+00  0.00000000E+00  0.00000000E+00  0.00000000E+00
  0.00000000E+00  0.00000000E+00  0.00000000E+00  0.00000000E+00  0.00000000E+00
  0.00000000E+00  0.00000000E+00  0.00000000E+00  0.00000000E+00  0.00000000E+00
  0.00000000E+00  0.00000000E+00  0.00000000E+00  0.00000000E+00  0.00000000E+00
  0.00000000E+00  0.00000000E+00  0.00000000E+00  0.00000000E+00  0.00000000E+00
  0.00000000E+00  0.00000000E+00  0.00000000E+00  0.00000000E+00  0.00000000E+00
  0.00000000E+00  0.00000000E+00  0.00000000E+00  0.00000000E+00  0.00000000E+00
  0.00000000E+00  0.00000000E+00  0.00000000E+00  0.00000000E+00  0.00000000E+00
  0.00000000E+00  0.00000000E+00  0.00000000E+00  0.00000000E+00  0.00000000E+00
  0.00000000E+00  0.00000000E+00  0.00000000E+00  0.00000000E+00  0.00000000E+00
  0.00000000E+00  0.00000000E+00  0.00000000E+00  0.00000000E+00  0.00000000E+00
  0.00000000E+00  0.00000000E+00  0.00000000E+00  0.00000000E+00  0.00000000E+00
  0.00000000E+00  0.00000000E+00  0.00000000E+00  0.00000000E+00  0.00000000E+00
  0.00000000E+00  0.00000000E+00  0.00000000E+00  0.00000000E+00  0.00000000E+00
  0.00000000E+00  0.00000000E+00  0.00000000E+00  0.00000000E+00  0.00000000E+00
  0.00000000E+00  0.00000000E+00  0.00000000E+00  0.00000000E+00  0.00000000E+00
  0.00000000E+00  0.00000000E+00  0.00000000E+00  0.00000000E+00  0.00000000E+00
  0.00000000E+00  0.00000000E+00  0.00000000E+00  0.00000000E+00  0.00000000E+00
  0.00000000E+00  0.00000000E+00  0.00000000E+00  0.00000000E+00  0.00000000E+00
  0.00000000E+00  0.00000000E+00  0.00000000E+00  0.00000000E+00  0.00000000E+00
  0.00000000E+00  0.00000000E+00  0.00000000E+00  0.00000000E+00  0.00000000E+00
  0.00000000E+00  0.00000000E+00  0.00000000E+00  0.00000000E+00  0.00000000E+00
  0.00000000E+00  0.00000000E+00  0.00000000E+00  0.00000000E+00  0.00000000E+00
  0.00000000E+00  0.00000000E+00  0.00000000E+00  0.00000000E+00  0.00000000E+00
  0.00000000E+00  0.00000000E+00  0.00000000E+00  0.00000000E+00  0.00000000E+00
  0.00000000E+00  0.00000000E+00  0.00000000E+00  0.00000000E+00  0.00000000E+00
  0.00000000E+00  0.00000000E+00  0.00000000E+00  0.00000000E+00  0.00000000E+00
  0.00000000E+00  0.00000000E+00  0.00000000E+00  0.00000000E+00  0.00000000E+00
  0.00000000E+00  0.00000000E+00  0.00000000E+00  0.00000000E+00  0.00000000E+00
  0.00000000E+00  0.00000000E+00  0.00000000E+00  0.00000000E+00  0.00000000E+00
  0.00000000E+00  0.00000000E+00  0.00000000E+00  0.00000000E+00  0.00000000E+00
  0.00000000E+00  0.00000000E+00  0.00000000E+00  0.00000000E+00  0.00000000E+00
  0.00000000E+00  0.00000000E+00  0.00000000E+00  0.00000000E+00  0.00000000E+00
  0.00000000E+00  0.00000000E+00  0.00000000E+00  0.00000000E+00  0.00000000E+00
  0.00000000E+00  0.00000000E+00  0.00000000E+00  0.00000000E+00  0.00000000E+00
  0.00000000E+00  0.00000000E+00  0.00000000E+00  0.00000000E+00  0.00000000E+00
  0.00000000E+00  0.00000000E+00  0.00000000E+00  0.00000000E+00  0.00000000E+00
  0.00000000E+00  0.00000000E+00  0.00000000E+00  0.00000000E+00  0.00000000E+00
  0.00000000E+00  0.00000000E+00  0.00000000E+00  0.00000000E+00  0.00000000E+00
  0.00000000E+00  0.00000000E+00  0.00000000E+00  0.00000000E+00  0.00000000E+00
  0.00000000E+00  0.00000000E+00  0.00000000E+00  0.00000000E+00  0.00000000E+00
  0.00000000E+00  0.00000000E+00  0.00000000E+00  0.00000000E+00  0.00000000E+00
  0.00000000E+00  0.00000000E+00  0.00000000E+00  0.00000000E+00  0.00000000E+00
  0.00000000E+00  0.00000000E+00  0.00000000E+00  0.00000000E+00  0.00000000E+00
  0.00000000E+00  0.00000000E+00  0.00000000E+00  0.00000000E+00  0.00000000E+00
  0.00000000E+00  0.00000000E+00  0.00000000E+00  0.00000000E+00  0.00000000E+00
  0.00000000E+00  0.00000000E+00  0.00000000E+00  0.00000000E+00  0.00000000E+00
  0.00000000E+00  0.00000000E+00  0.00000000E+00  0.00000000E+00  0.00000000E+00
  0.00000000E+00  0.00000000E+00  0.00000000E+00  0.00000000E+00  0.00000000E+00
  0.00000000E+00  0.00000000E+00  0.00000000E+00  0.00000000E+00  0.00000000E+00
  0.00000000E+00  0.00000000E+00  0.00000000E+00  0.00000000E+00  0.00000000E+00
  0.00000000E+00  0.00000000E+00  0.00000000E+00  0.00000000E+00  0.00000000E+00
  0.00000000E+00  0.00000000E+00  0.00000000E+00  0.00000000E+00  0.00000000E+00
  0.00000000E+00  0.00000000E+00  0.00000000E+00  0.00000000E+00  0.00000000E+00
  0.00000000E+00  0.00000000E+00  0.00000000E+00  0.00000000E+00  0.00000000E+00
  0.00000000E+00  0.00000000E+00  0.00000000E+00  0.00000000E+00  0.00000000E+00
  0.00000000E+00  0.00000000E+00  0.00000000E+00  0.00000000E+00  0.00000000E+00
  0.00000000E+00  0.00000000E+00  0.00000000E+00  0.00000000E+00  0.00000000E+00
  0.00000000E+00  0.00000000E+00  0.00000000E+00  0.00000000E+00  0.00000000E+00
  0.00000000E+00  0.00000000E+00  0.00000000E+00  0.00000000E+00  0.00000000E+00
  0.00000000E+00  0.00000000E+00  0.00000000E+00  0.00000000E+00  0.00000000E+00
  0.00000000E+00  0.00000000E+00  0.00000000E+00  0.00000000E+00  0.00000000E+00
  0.00000000E+00  0.00000000E+00  0.00000000E+00  0.00000000E+00  0.00000000E+00
  0.00000000E+00  0.00000000E+00  0.00000000E+00  0.00000000E+00  0.00000000E+00
  0.00000000E+00  0.00000000E+00  0.00000000E+00  0.00000000E+00  0.00000000E+00
  0.00000000E+00  0.00000000E+00  0.00000000E+00  0.00000000E+00  0.00000000E+00
  0.00000000E+00  0.00000000E+00  0.00000000E+00  0.00000000E+00  0.00000000E+00
  0.00000000E+00  0.00000000E+00  0.00000000E+00  0.00000000E+00  0.00000000E+00
  0.00000000E+00  0.00000000E+00  0.00000000E+00  0.00000000E+00  0.00000000E+00
  0.00000000E+00  0.00000000E+00  0.00000000E+00  0.00000000E+00  0.00000000E+00
  0.00000000E+00  0.00000000E+00  0.00000000E+00  0.00000000E+00  0.00000000E+00
  0.00000000E+00  0.00000000E+00  0.00000000E+00  0.00000000E+00  0.00000000E+00
  0.00000000E+00  0.00000000E+00  0.00000000E+00  0.00000000E+00  0.00000000E+00
  0.00000000E+00  0.00000000E+00  0.00000000E+00  0.00000000E+00  0.00000000E+00
  0.00000000E+00  0.00000000E+00  0.00000000E+00  0.00000000E+00  0.00000000E+00
  0.00000000E+00  0.00000000E+00  0.00000000E+00  0.00000000E+00  0.00000000E+00
  0.00000000E+00  0.00000000E+00  0.00000000E+00  0.00000000E+00  0.00000000E+00
  0.00000000E+00  0.00000000E+00  0.00000000E+00  0.00000000E+00  0.00000000E+00
  0.00000000E+00  0.00000000E+00  0.00000000E+00  0.00000000E+00  0.00000000E+00
  0.00000000E+00  0.00000000E+00  0.00000000E+00  0.00000000E+00  0.00000000E+00
  0.00000000E+00  0.00000000E+00  0.00000000E+00  0.00000000E+00  0.00000000E+00
  0.00000000E+00  0.00000000E+00  0.00000000E+00  0.00000000E+00  0.00000000E+00
  0.00000000E+00  0.00000000E+00  0.00000000E+00  0.00000000E+00  0.00000000E+00
  0.00000000E+00  0.00000000E+00  0.00000000E+00  0.00000000E+00  0.00000000E+00
  0.00000000E+00  0.00000000E+00  0.00000000E+00  0.00000000E+00  0.00000000E+00
  0.00000000E+00  0.00000000E+00  0.00000000E+00  0.00000000E+00  0.00000000E+00
  0.00000000E+00  0.00000000E+00  0.00000000E+00  0.00000000E+00  0.00000000E+00
  0.00000000E+00  0.00000000E+00  0.00000000E+00  0.00000000E+00  0.00000000E+00
  0.00000000E+00  0.00000000E+00  0.00000000E+00  0.00000000E+00  0.00000000E+00
  0.00000000E+00  0.00000000E+00  0.00000000E+00  0.00000000E+00  0.00000000E+00
  0.00000000E+00  0.00000000E+00  0.00000000E+00  0.00000000E+00  0.00000000E+00
  0.00000000E+00  0.00000000E+00  0.00000000E+00  0.00000000E+00  0.00000000E+00
  0.00000000E+00  0.00000000E+00  0.00000000E+00  0.00000000E+00  0.00000000E+00
  0.00000000E+00  0.00000000E+00  0.00000000E+00  0.00000000E+00  0.00000000E+00
  0.00000000E+00  0.00000000E+00  0.00000000E+00  0.00000000E+00  0.00000000E+00
  0.00000000E+00  0.00000000E+00  0.00000000E+00  0.00000000E+00  0.00000000E+00
  0.00000000E+00  0.00000000E+00  0.00000000E+00  0.00000000E+00  0.00000000E+00
  0.00000000E+00  0.00000000E+00  0.00000000E+00  0.00000000E+00  0.00000000E+00
  0.00000000E+00  0.00000000E+00  0.00000000E+00  0.00000000E+00  0.00000000E+00
  0.00000000E+00  0.00000000E+00  0.00000000E+00  0.00000000E+00  0.00000000E+00
  0.00000000E+00  0.00000000E+00  0.00000000E+00  0.00000000E+00  0.00000000E+00
  0.00000000E+00  0.00000000E+00  0.00000000E+00  0.00000000E+00  0.00000000E+00
  0.00000000E+00  0.00000000E+00  0.00000000E+00  0.00000000E+00  0.00000000E+00
  0.00000000E+00  0.00000000E+00  0.00000000E+00  0.00000000E+00  0.00000000E+00
  0.00000000E+00  0.00000000E+00  0.00000000E+00  0.00000000E+00  0.00000000E+00
  0.00000000E+00  0.00000000E+00  0.00000000E+00  0.00000000E+00  0.00000000E+00
  0.00000000E+00  0.00000000E+00  0.00000000E+00  0.00000000E+00  0.00000000E+00
  0.00000000E+00  0.00000000E+00  0.00000000E+00  0.00000000E+00  0.00000000E+00
  0.00000000E+00  0.00000000E+00  0.00000000E+00  0.00000000E+00  0.00000000E+00
  0.00000000E+00  0.00000000E+00  0.00000000E+00  0.00000000E+00  0.00000000E+00
  0.00000000E+00  0.00000000E+00  0.00000000E+00  0.00000000E+00  0.00000000E+00
  0.00000000E+00  0.00000000E+00  0.00000000E+00  0.00000000E+00  0.00000000E+00
  0.00000000E+00  0.00000000E+00  0.00000000E+00  0.00000000E+00  0.00000000E+00
  0.00000000E+00  0.00000000E+00  0.00000000E+00  0.00000000E+00  0.00000000E+00
  0.00000000E+00  0.00000000E+00  0.00000000E+00  0.00000000E+00  0.00000000E+00
  0.00000000E+00  0.00000000E+00  0.00000000E+00  0.00000000E+00  0.00000000E+00
  0.00000000E+00  0.00000000E+00  0.00000000E+00  0.00000000E+00  0.00000000E+00
  0.00000000E+00  0.00000000E+00  0.00000000E+00  0.00000000E+00  0.00000000E+00
  0.00000000E+00  0.00000000E+00  0.00000000E+00  0.00000000E+00  0.00000000E+00
  0.00000000E+00  0.00000000E+00  0.00000000E+00  0.00000000E+00  0.00000000E+00
  0.00000000E+00  0.00000000E+00  0.00000000E+00  0.00000000E+00  0.00000000E+00
  0.00000000E+00  0.00000000E+00  0.00000000E+00  0.00000000E+00  0.00000000E+00
  0.00000000E+00  0.00000000E+00  0.00000000E+00  0.00000000E+00  0.00000000E+00
  0.00000000E+00  0.00000000E+00  0.00000000E+00  0.00000000E+00  0.00000000E+00
  0.00000000E+00  0.00000000E+00  0.00000000E+00  0.00000000E+00  0.00000000E+00
  0.00000000E+00  0.00000000E+00  0.00000000E+00  0.00000000E+00  0.00000000E+00
  0.00000000E+00  0.00000000E+00  0.00000000E+00  0.00000000E+00  0.00000000E+00
  0.00000000E+00  0.00000000E+00  0.00000000E+00  0.00000000E+00  0.00000000E+00
  0.00000000E+00  0.00000000E+00  0.00000000E+00  0.00000000E+00  0.00000000E+00
  0.00000000E+00  0.00000000E+00  0.00000000E+00  0.00000000E+00  0.00000000E+00
  0.00000000E+00  0.00000000E+00  0.00000000E+00  0.00000000E+00  0.00000000E+00
  0.00000000E+00  0.00000000E+00  0.00000000E+00  0.00000000E+00  0.00000000E+00
  0.00000000E+00  0.00000000E+00  0.00000000E+00  0.00000000E+00  0.00000000E+00
  0.00000000E+00  0.00000000E+00  0.00000000E+00  0.00000000E+00  0.00000000E+00
  0.00000000E+00  0.00000000E+00  0.00000000E+00  0.00000000E+00  0.00000000E+00
  0.00000000E+00  0.00000000E+00  0.00000000E+00  0.00000000E+00  0.00000000E+00
  0.00000000E+00  0.00000000E+00  0.00000000E+00  0.00000000E+00  0.00000000E+00
  0.00000000E+00  0.00000000E+00  0.00000000E+00  0.00000000E+00  0.00000000E+00
  0.00000000E+00  0.00000000E+00  0.00000000E+00  0.00000000E+00  0.00000000E+00
  0.00000000E+00  0.00000000E+00  0.00000000E+00  0.00000000E+00  0.00000000E+00
  0.00000000E+00  0.00000000E+00  0.00000000E+00  0.00000000E+00  0.00000000E+00
  0.00000000E+00  0.00000000E+00  0.00000000E+00  0.00000000E+00  0.00000000E+00
  0.00000000E+00  0.00000000E+00  0.00000000E+00  0.00000000E+00  0.00000000E+00
  0.00000000E+00  0.00000000E+00  0.00000000E+00  0.00000000E+00  0.00000000E+00
  0.00000000E+00  0.00000000E+00  0.00000000E+00  0.00000000E+00  0.00000000E+00
  0.00000000E+00  0.00000000E+00  0.00000000E+00  0.00000000E+00  0.00000000E+00
  0.00000000E+00  0.00000000E+00  0.00000000E+00  0.00000000E+00  0.00000000E+00
  0.00000000E+00  0.00000000E+00  0.00000000E+00  0.00000000E+00  0.00000000E+00
  0.00000000E+00  0.00000000E+00  0.00000000E+00  0.00000000E+00  0.00000000E+00
  0.00000000E+00  0.00000000E+00  0.00000000E+00  0.00000000E+00  0.00000000E+00
  0.00000000E+00  0.00000000E+00  0.00000000E+00  0.00000000E+00  0.00000000E+00
  0.00000000E+00  0.00000000E+00  0.00000000E+00  0.00000000E+00  0.00000000E+00
  0.00000000E+00  0.00000000E+00  0.00000000E+00  0.00000000E+00  0.00000000E+00
  0.00000000E+00  0.00000000E+00  0.00000000E+00  0.00000000E+00  0.00000000E+00
  0.00000000E+00  0.00000000E+00  0.00000000E+00  0.00000000E+00  0.00000000E+00
  0.00000000E+00  0.00000000E+00  0.00000000E+00  0.00000000E+00  0.00000000E+00
  0.00000000E+00  0.00000000E+00  0.00000000E+00  0.00000000E+00  0.00000000E+00
  0.00000000E+00  0.00000000E+00  0.00000000E+00  0.00000000E+00  0.00000000E+00
  0.00000000E+00  0.00000000E+00  0.00000000E+00  0.00000000E+00  0.00000000E+00
  0.00000000E+00  0.00000000E+00  0.00000000E+00  0.00000000E+00  0.00000000E+00
  0.00000000E+00  0.00000000E+00  0.00000000E+00  0.00000000E+00  0.00000000E+00
  0.00000000E+00  0.00000000E+00  0.00000000E+00  0.00000000E+00  0.00000000E+00
  0.00000000E+00  0.00000000E+00  0.00000000E+00  0.00000000E+00  0.00000000E+00
  0.00000000E+00  0.00000000E+00  0.00000000E+00  0.00000000E+00  0.00000000E+00
  0.00000000E+00  0.00000000E+00  0.00000000E+00  0.00000000E+00  0.00000000E+00
  0.00000000E+00  0.00000000E+00  0.00000000E+00  0.00000000E+00  0.00000000E+00
  0.00000000E+00  0.00000000E+00  0.00000000E+00  0.00000000E+00  0.00000000E+00
  0.00000000E+00  0.00000000E+00  0.00000000E+00  0.00000000E+00  0.00000000E+00
  0.00000000E+00  0.00000000E+00  0.00000000E+00  0.00000000E+00  0.00000000E+00
  0.00000000E+00  0.00000000E+00  0.00000000E+00  0.00000000E+00  0.00000000E+00
  0.00000000E+00  0.00000000E+00  0.00000000E+00  0.00000000E+00  0.00000000E+00
  0.00000000E+00  0.00000000E+00  0.00000000E+00  0.00000000E+00  0.00000000E+00
  0.00000000E+00  0.00000000E+00  0.00000000E+00  0.00000000E+00  0.00000000E+00
  0.00000000E+00  0.00000000E+00  0.00000000E+00  0.00000000E+00  0.00000000E+00
  0.00000000E+00  0.00000000E+00  0.00000000E+00  0.00000000E+00  0.00000000E+00
  0.00000000E+00  0.00000000E+00  0.00000000E+00  0.00000000E+00  0.00000000E+00
  0.00000000E+00  0.00000000E+00  0.00000000E+00  0.00000000E+00  0.00000000E+00
  0.00000000E+00  0.00000000E+00  0.00000000E+00  0.00000000E+00  0.00000000E+00
  0.00000000E+00  0.00000000E+00  0.00000000E+00  0.00000000E+00  0.00000000E+00
  0.00000000E+00  0.00000000E+00  0.00000000E+00  0.00000000E+00  0.00000000E+00
  0.00000000E+00  0.00000000E+00  0.00000000E+00  0.00000000E+00  0.00000000E+00
  0.00000000E+00  0.00000000E+00  0.00000000E+00  0.00000000E+00  0.00000000E+00
  0.00000000E+00  0.00000000E+00  0.00000000E+00  0.00000000E+00  0.00000000E+00
  0.00000000E+00  0.00000000E+00  0.00000000E+00  0.00000000E+00  0.00000000E+00
  0.00000000E+00  0.00000000E+00  0.00000000E+00  0.00000000E+00  0.00000000E+00
  0.00000000E+00  0.00000000E+00  0.00000000E+00  0.00000000E+00  0.00000000E+00
  0.00000000E+00  0.00000000E+00  0.00000000E+00  0.00000000E+00  0.00000000E+00
  0.00000000E+00  0.00000000E+00  0.00000000E+00  0.00000000E+00  0.00000000E+00
  0.00000000E+00  0.00000000E+00  0.00000000E+00  0.00000000E+00  0.00000000E+00
  0.00000000E+00  0.00000000E+00  0.00000000E+00  0.00000000E+00  0.00000000E+00
  0.00000000E+00  0.00000000E+00  0.00000000E+00  0.00000000E+00  0.00000000E+00
  0.00000000E+00  0.00000000E+00  0.00000000E+00  0.00000000E+00  0.00000000E+00
  0.00000000E+00  0.00000000E+00  0.00000000E+00  0.00000000E+00  0.00000000E+00
  0.00000000E+00  0.00000000E+00  0.00000000E+00  0.00000000E+00  0.00000000E+00
  0.00000000E+00  0.00000000E+00  0.00000000E+00  0.00000000E+00  0.00000000E+00
  0.00000000E+00  0.00000000E+00  0.00000000E+00  0.00000000E+00  0.00000000E+00
  0.00000000E+00  0.00000000E+00  0.00000000E+00  0.00000000E+00  0.00000000E+00
  0.00000000E+00  0.00000000E+00  0.00000000E+00  0.00000000E+00  0.00000000E+00
  0.00000000E+00  0.00000000E+00  0.00000000E+00  0.00000000E+00  0.00000000E+00
  0.00000000E+00  0.00000000E+00  0.00000000E+00  0.00000000E+00  0.00000000E+00
  0.00000000E+00  0.00000000E+00  0.00000000E+00  0.00000000E+00  0.00000000E+00
  0.00000000E+00  0.00000000E+00  0.00000000E+00  0.00000000E+00  0.00000000E+00
  0.00000000E+00  0.00000000E+00  0.00000000E+00  0.00000000E+00  0.00000000E+00
  0.00000000E+00  0.00000000E+00  0.00000000E+00  0.00000000E+00  0.00000000E+00
  0.00000000E+00  0.00000000E+00  0.00000000E+00  0.00000000E+00  0.00000000E+00
  0.00000000E+00  0.00000000E+00  0.00000000E+00  0.00000000E+00  0.00000000E+00
  0.00000000E+00  0.00000000E+00  0.00000000E+00  0.00000000E+00  0.00000000E+00
  0.00000000E+00  0.00000000E+00  0.00000000E+00  0.00000000E+00  0.00000000E+00
  0.00000000E+00  0.00000000E+00  0.00000000E+00  0.00000000E+00  0.00000000E+00
  0.00000000E+00  0.00000000E+00  0.00000000E+00  0.00000000E+00  0.00000000E+00
  0.00000000E+00  0.00000000E+00  0.00000000E+00  0.00000000E+00  0.00000000E+00
  0.00000000E+00  0.00000000E+00  0.00000000E+00  0.00000000E+00  0.00000000E+00
  0.00000000E+00  0.00000000E+00  0.00000000E+00  0.00000000E+00  0.00000000E+00
  0.00000000E+00  0.00000000E+00  0.00000000E+00  0.00000000E+00  0.00000000E+00
  0.00000000E+00  0.00000000E+00  0.00000000E+00  0.00000000E+00  0.00000000E+00
  0.00000000E+00  0.00000000E+00  0.00000000E+00  0.00000000E+00  0.00000000E+00
  0.00000000E+00  0.00000000E+00  0.00000000E+00  0.00000000E+00  0.00000000E+00
  0.00000000E+00  0.00000000E+00  0.00000000E+00  0.00000000E+00  0.00000000E+00
  0.00000000E+00  0.00000000E+00  0.00000000E+00  0.00000000E+00  0.00000000E+00
  0.00000000E+00  0.00000000E+00  0.00000000E+00  0.00000000E+00  0.00000000E+00
  0.00000000E+00  0.00000000E+00  0.00000000E+00  0.00000000E+00  0.00000000E+00
  0.00000000E+00  0.00000000E+00  0.00000000E+00  0.00000000E+00  0.00000000E+00
  0.00000000E+00  0.00000000E+00  0.00000000E+00  0.00000000E+00  0.00000000E+00
  0.00000000E+00  0.00000000E+00  0.00000000E+00  0.00000000E+00  0.00000000E+00
  0.00000000E+00  0.00000000E+00  0.00000000E+00  0.00000000E+00  0.00000000E+00
  0.00000000E+00  0.00000000E+00  0.00000000E+00  0.00000000E+00  0.00000000E+00
  0.00000000E+00  0.00000000E+00  0.00000000E+00  0.00000000E+00  0.00000000E+00
  0.00000000E+00  0.00000000E+00  0.00000000E+00  0.00000000E+00  0.00000000E+00
  0.00000000E+00  0.00000000E+00  0.00000000E+00  0.00000000E+00  0.00000000E+00
  0.00000000E+00  0.00000000E+00  0.00000000E+00  0.00000000E+00  0.00000000E+00
  0.00000000E+00  0.00000000E+00  0.00000000E+00  0.00000000E+00  0.00000000E+00
  0.00000000E+00  0.00000000E+00  0.00000000E+00  0.00000000E+00  0.00000000E+00
  0.00000000E+00  0.00000000E+00  0.00000000E+00  0.00000000E+00  0.00000000E+00
  0.00000000E+00  0.00000000E+00  0.00000000E+00  0.00000000E+00  0.00000000E+00
  0.00000000E+00  0.00000000E+00  0.00000000E+00  0.00000000E+00  0.00000000E+00
  0.00000000E+00  0.00000000E+00  0.00000000E+00  0.00000000E+00  0.00000000E+00
  0.00000000E+00  0.00000000E+00  0.00000000E+00  0.00000000E+00  0.00000000E+00
  0.00000000E+00  0.00000000E+00  0.00000000E+00  0.00000000E+00  0.00000000E+00
  0.00000000E+00  0.00000000E+00  0.00000000E+00  0.00000000E+00  0.00000000E+00
  0.00000000E+00  0.00000000E+00  0.00000000E+00  0.00000000E+00  0.00000000E+00
  0.00000000E+00  0.00000000E+00  0.00000000E+00  0.00000000E+00  0.00000000E+00
  0.00000000E+00  0.00000000E+00  0.00000000E+00  0.00000000E+00  0.00000000E+00
  0.00000000E+00  0.00000000E+00  0.00000000E+00  0.00000000E+00  0.00000000E+00
  0.00000000E+00  0.00000000E+00  0.00000000E+00  0.00000000E+00  0.00000000E+00
  0.00000000E+00  0.00000000E+00  0.00000000E+00  0.00000000E+00  0.00000000E+00
  0.00000000E+00  0.00000000E+00  0.00000000E+00  0.00000000E+00  0.00000000E+00
  0.00000000E+00  0.00000000E+00  0.00000000E+00  0.00000000E+00  0.00000000E+00
  0.00000000E+00  0.00000000E+00  0.00000000E+00  0.00000000E+00  0.00000000E+00
  0.00000000E+00  0.00000000E+00  0.00000000E+00  0.00000000E+00  0.00000000E+00
  0.00000000E+00  0.00000000E+00  0.00000000E+00  0.00000000E+00  0.00000000E+00
  0.00000000E+00  0.00000000E+00  0.00000000E+00  0.00000000E+00  0.00000000E+00
  0.00000000E+00  0.00000000E+00  0.00000000E+00  0.00000000E+00  0.00000000E+00
  0.00000000E+00  0.00000000E+00  0.00000000E+00  0.00000000E+00  0.00000000E+00
  0.00000000E+00  0.00000000E+00  0.00000000E+00  0.00000000E+00  0.00000000E+00
  0.00000000E+00  0.00000000E+00  0.00000000E+00  0.00000000E+00  0.00000000E+00
  0.00000000E+00  0.00000000E+00  0.00000000E+00  0.00000000E+00  0.00000000E+00
  0.00000000E+00  0.00000000E+00  0.00000000E+00  0.00000000E+00  0.00000000E+00
  0.00000000E+00  0.00000000E+00  0.00000000E+00  0.00000000E+00  0.00000000E+00
  0.00000000E+00  0.00000000E+00  0.00000000E+00  0.00000000E+00  0.00000000E+00
  0.00000000E+00  0.00000000E+00  0.00000000E+00  0.00000000E+00  0.00000000E+00
  0.00000000E+00  0.00000000E+00  0.00000000E+00  0.00000000E+00  0.00000000E+00
  0.00000000E+00  0.00000000E+00  0.00000000E+00  0.00000000E+00  0.00000000E+00
  0.00000000E+00  0.00000000E+00  0.00000000E+00  0.00000000E+00  0.00000000E+00
  0.00000000E+00  0.00000000E+00  0.00000000E+00  0.00000000E+00  0.00000000E+00
  0.00000000E+00  0.00000000E+00  0.00000000E+00  0.00000000E+00  0.00000000E+00
  0.00000000E+00  0.00000000E+00  0.00000000E+00  0.00000000E+00  0.00000000E+00
  0.00000000E+00  0.00000000E+00  0.00000000E+00  0.00000000E+00  0.00000000E+00
  0.00000000E+00  0.00000000E+00  0.00000000E+00  0.00000000E+00  0.00000000E+00
  0.00000000E+00  0.00000000E+00  0.00000000E+00  0.00000000E+00  0.00000000E+00
  0.00000000E+00  0.00000000E+00  0.00000000E+00  0.00000000E+00  0.00000000E+00
  0.00000000E+00  0.00000000E+00  0.00000000E+00  0.00000000E+00  0.00000000E+00
  0.00000000E+00  0.00000000E+00  0.00000000E+00  0.00000000E+00  0.00000000E+00
  0.00000000E+00  0.00000000E+00  0.00000000E+00  0.00000000E+00  0.00000000E+00
  0.00000000E+00  0.00000000E+00  0.00000000E+00  0.00000000E+00  0.00000000E+00
  0.00000000E+00  0.00000000E+00  0.00000000E+00  0.00000000E+00  0.00000000E+00
  0.00000000E+00  0.00000000E+00  0.00000000E+00  0.00000000E+00  0.00000000E+00
  0.00000000E+00  0.00000000E+00  0.00000000E+00  0.00000000E+00  0.00000000E+00
  0.00000000E+00  0.00000000E+00  0.00000000E+00  0.00000000E+00  0.00000000E+00
  0.00000000E+00  0.00000000E+00  0.00000000E+00  0.00000000E+00  0.00000000E+00
Gaussian Version                           C   N=           2
ES64L-G16RevC.01        
